PerovskiteSurface_12951678_2            
    1.000000000000000     
    18.0608005523999999    0.0000000000000000    0.0000000000000000
    -0.0049186487000000   18.0627987840000017    0.0000000000000000
     0.0000000000000000    0.0000000000000000   62.4874992371000033
   H    C    N    I    Pb
   143    39    47    72    24
Selective dynamics
Direct
  0.4456833431530246  0.3356564712868051  0.5585355507008563   T   T   T
  0.3992675675978530  0.7899508263251240  0.5602991551545422   T   T   T
  0.9066180122687941  0.2983705870439504  0.5542197967108659   T   T   T
  0.9118647105468937  0.7499837910774941  0.5669287455949404   T   T   T
  0.3197265158679082  0.0078552819518251  0.5696956894025169   T   T   T
  0.3332662808411319  0.5538672539697592  0.5597365724772183   T   T   T
  0.8262674636412038 -0.0078376249865157  0.5664942739057621   T   T   T
  0.0460000675371593  0.1763339432345626  0.5760655515417201   T   T   T
  0.1058160692175207  0.7031513906080676  0.5581754489904401   T   T   T
  0.5603546035937735  0.1772880891569381  0.5734191352276482   T   T   T
  0.5666864311973159  0.6859783325345363  0.5727853657232793   T   T   T
  0.2936769218542578  0.0985034537542308  0.5624326256178430   T   T   T
  0.2578586257910527  0.6145238773068824  0.5566672974404442   T   T   T
  0.8101328788170375  0.0867621529321924  0.5614789289413611   T   T   T
 -0.0480304722652766  0.1813626834960445  0.5701949627629300   T   T   T
  0.0206907366823331  0.6599218688295471  0.5636954749286595   T   T   T
  0.5599500823620285  0.2732953747443385  0.5741102268202545   T   T   T
  0.4709599267793270  0.6792599850273197  0.5738688746960872   T   T   T
  0.3082332133421085  0.4242910047472139  0.5656153630232033   T   T   T
  0.2168151274319234  0.9124033444745324  0.5670196460467257   T   T   T
  0.7109307575037338  0.9092651737189436  0.5620965615366383   T   T   T
  0.3733894170969477  0.2742260169363628  0.5520541176323150   T   T   T
  0.4538903201955073  0.8672919735321821  0.5539453796572283   T   T   T
  0.9733640721948097  0.3697755530817065  0.5512290392013909   T   T   T
  0.9334010370446897  0.8427904023703342  0.5609667873462451   T   T   T
  0.2169155428831066  0.3939980421141989  0.5639804158863531   T   T   T
  0.1296349199394417  0.9492829067754129  0.5599169076342307   T   T   T
  0.6286942827036769  0.9594704716136727  0.5576781396681709   T   T   T
  0.4440442887335792  0.1691589588316637  0.5580265190663770   T   T   T
  0.5646964345239381  0.8044651523734684  0.5585020766635336   T   T   T
  0.0698307912742850  0.2943772223573249  0.5627576068564412   T   T   T
  0.0556997352573844  0.8191994604707213  0.5546923617818817   T   T   T
  0.1720443596672666  0.5144350771208979  0.5579335978283145   T   T   T
  0.1737047097094811  0.0672237113760983  0.5552449048766140   T   T   T
  0.6865008055778336  0.0722429253266062  0.5558505882042242   T   T   T
  0.4494441889909044  0.2879576702727144  0.6738783536783044   T   T   T
  0.4960113914315710  0.7890099641004378  0.6776818237834514   T   T   T
  0.9429843039460187  0.3046455083041036  0.6711161053520738   T   T   T
  0.9628108825729935  0.8079203108305947  0.6726463316900481   T   T   T
  0.2966634373449553  0.0472883774993985  0.6726815402705784   T   T   T
  0.2926049648939182  0.5472554972023659  0.6738418338261322   T   T   T
  0.7887543097029281  0.0442810761585868  0.6747389844314673   T   T   T
  0.7834614532491784  0.5360986534476984  0.6759194947489569   T   T   T
  0.0696029338195626  0.1664921022341713  0.6480925973071987   T   T   T
  0.0874113986185234  0.6754802248477185  0.6468704328240573   T   T   T
  0.5787337570235730  0.1675857050480044  0.6446576202169505   T   T   T
  0.5765634627060140  0.6602374500837108  0.6392022427224600   T   T   T
  0.1691259861394180  0.4190196961834035  0.6453423122386712   T   T   T
  0.1654644929992817  0.9226874347243270  0.6456973577111289   T   T   T
  0.6672131733091933  0.4200470586535037  0.6416918707407497   T   T   T
  0.6696407667482825  0.9172883617130198  0.6442053035302117   T   T   T
  0.0388050208218301  0.1968429183524187  0.6729604662829429   T   T   T
  0.0772379265324057  0.7242198409113750  0.6707955654540227   T   T   T
  0.5524738476062289  0.1874254876775771  0.6708697746616399   T   T   T
  0.5832238632070765  0.6855163065303583  0.6660629383338149   T   T   T
  0.1907369237062892  0.4454093361343481  0.6714601597654315   T   T   T
  0.1925351428106365  0.9475516347533104  0.6714437799195423   T   T   T
  0.6795981729631130  0.4420768872883089  0.6685712386514809   T   T   T
  0.6897508093831619  0.9402714972505614  0.6706395610135146   T   T   T
  0.4202746755910104  0.3232193736519714  0.6493724955882818   T   T   T
  0.4297436860599553  0.8147365311851243  0.6590229736245059   T   T   T
  0.9225251102109564  0.3334587648661483  0.6451632466450624   T   T   T
  0.9028044473141855  0.8002744839935626  0.6511145544360508   T   T   T
  0.3268732168370708  0.0763046918696123  0.6476203493417400   T   T   T
  0.3268153400936456  0.5759969948743506  0.6492818766764633   T   T   T
  0.8223382585060077  0.0781819829760756  0.6505666283979950   T   T   T
  0.8348078097543419  0.5619638658714674  0.6538058978541608   T   T   T
  0.0000885433745909  0.2499613279574883  0.6289640978898809   T   T   T
  0.9785795007220277  0.7194865233017783  0.6323082982677758   T   T   T
  0.4984758905895860  0.2509305350463778  0.6293856119173996   T   T   T
  0.4770844372646769  0.7376510744310729  0.6324729323681658   T   T   T
  0.2476571577744539  0.0008695605352121  0.6289306548461682   T   T   T
  0.2520459317936813  0.4980419816041119  0.6295740598749987   T   T   T
  0.7512207809224309  0.0015732061389384  0.6297408824668470   T   T   T
  0.7629944692377248  0.4941310580896286  0.6299153180068838   T   T   T
  0.4487450123026875  0.3012839853932547  0.7688890099553589   F   F   F
  0.4487450122585699  0.8012839555529183  0.7688890099553589   F   F   F
  0.9487449526597018  0.3012839853932547  0.7688890099553589   F   F   F
  0.9487450123028651  0.8012839555529183  0.7688890099553589   F   F   F
  0.3012759983606372  0.0512944981605372  0.7688729763004289   F   F   F
  0.3012759983266733  0.5512945055790937  0.7688729763004289   F   F   F
  0.8012759685612991  0.0512944981605372  0.7688729763004289   F   F   F
  0.8012759685273281  0.5512945055790937  0.7688729763004289   F   F   F
  0.0787710025712300  0.1711805015919765  0.7434419989625454   F   F   F
  0.0787710025865564  0.6711804866994839  0.7434419989625454   F   F   F
  0.5787709951407791  0.1711805015919765  0.7434419989625454   F   F   F
  0.5787709951560984  0.6711804866994839  0.7434419989625454   F   F   F
  0.1711995005657982  0.4211744964317958  0.7434210181261207   F   F   F
  0.1711995005379165  0.9211745262167668  0.7434210181261207   F   F   F
  0.6711995005547209  0.4211744964317958  0.7434210181261207   F   F   F
  0.6711995005822118  0.9211745262167668  0.7434210181261207   F   F   F
  0.0512560010060099  0.1987150013639862  0.7688890099553589   F   F   F
  0.0512560010172578  0.6987149715236498  0.7688890099553589   F   F   F
  0.5512560009949325  0.1987150013639862  0.7688890099553589   F   F   F
  0.5512560010061875  0.6987149715236498  0.7688890099553589   F   F   F
  0.1987234949972319  0.4487039745014059  0.7688720226216859   F   F   F
  0.1987234950247228  0.9487040042863839  0.7688720226216859   F   F   F
  0.6987234949861616  0.4487039745014059  0.7688720226216859   F   F   F
  0.6987234950136525  0.9487040042863839  0.7688720226216859   F   F   F
  0.4212315082396927  0.3288174867596396  0.7434419989625454   F   F   F
  0.4212315082590763  0.8288174867596396  0.7434419989625454   F   F   F
  0.9212314486520796  0.3288174867596396  0.7434419989625454   F   F   F
  0.9212315082479989  0.8288174867596396  0.7434419989625454   F   F   F
  0.3288004994152729  0.0788249969468282  0.7434210181261207   F   F   F
  0.3288004994346494  0.5788249969468282  0.7434210181261207   F   F   F
  0.8288004994595681  0.0788249969468282  0.7434210181261207   F   F   F
  0.8288004994235791  0.5788249969468282  0.7434210181261207   F   F   F
  0.0000034999835279  0.2500014901345224  0.7258219718940495   F   F   F
  0.0000035000029044  0.7500014901345224  0.7258219718940495   F   F   F
  0.5000035166937522  0.2500014901345224  0.7258219718940495   F   F   F
  0.5000035166577632  0.7500014901345224  0.7258219718940495   F   F   F
  0.2500005066165230  0.0000000000000000  0.7258039712857141   F   F   F
  0.2500005066359066  0.5000000000000000  0.7258039712857141   F   F   F
  0.7500004768171777  0.0000000000000000  0.7258039712857141   F   F   F
  0.7500004768365613  0.5000000000000000  0.7258039712857141   F   F   F
  0.6338282561655421  0.5514493230391936  0.4866071225253267   T   T   T
  0.7174893363645308  0.6011790731742787  0.4899420426982590   T   T   T
  0.6489621753175769  0.5637842451891630  0.5434679166115419   T   T   T
  0.6975887631099881  0.6315448329380252  0.5287368570846154   T   T   T
  0.7680144611504300  0.5107063037688504  0.5399485971484358   T   T   T
  0.7922961702390301  0.4621712069553399  0.5163938291469969   T   T   T
  0.5932129401884830  0.4654556461722405  0.5140819286971924   T   T   T
  0.6717321483545523  0.4147584571357200  0.5050483603733743   T   T   T
  0.7854434012366722  0.4770286843731096  0.4806508487594283   T   T   T
  0.6972316277742696  0.4415313297568706  0.4736736551463113   T   T   T
  0.6829353133549050  0.5587575250971067  0.4495358809629605   T   T   T
  0.7786051473982224  0.5728088577467090  0.4536118162819279   T   T   T
  0.5615824581508361  0.6533764167575505  0.5306712375892417   T   T   T
  0.5924553837988967  0.6490898971580623  0.5037765952654981   T   T   T
  0.5431096112822972  0.5731769198134322  0.5157489950693068   T   T   T
  0.8366833971071783  0.5811603983146757  0.4994300090815859   T   T   T
  0.8083611846541539  0.6318450715180627  0.5227200916891982   T   T   T
  0.8791531863791727  0.5646044104578168  0.5246119273577798   T   T   T
  0.6207861708931760  0.3697674506723158  0.5398248418095497   T   T   T
  0.7147576291585167  0.3943506664183494  0.5422804891569419   T   T   T
  0.6433805523997267  0.4533467964400578  0.5525815335649235   T   T   T
  0.7664109331249185  0.5067859334096588  0.4205381520382920   T   T   T
  0.8003189850781007  0.4411574578093529  0.4390663611009398   T   T   T
  0.6207166962771649  0.5131709940567291  0.4162049129745942   T   T   T
  0.7371238843599339  0.3253047932730780  0.4420215524415937   T   T   T
  0.5125384544735945  0.4334602418281600  0.4083891567109088   T   T   T
  0.6289428312053827  0.2452888111901821  0.4341862891096818   T   T   T
  0.5160150835815126  0.2990236685585638  0.4173613334142569   T   T   T
  0.0135403265597913  0.2722793624119770  0.5619854949856617   T   T   T
  0.0192650878107421  0.7728256689839560  0.5586092812834049   T   T   T
  0.4682039373346862  0.2237795497307163  0.5608666316487303   T   T   T
  0.5123601195288580  0.7757722432831204  0.5613610617786280   T   T   T
  0.2317315455510114  0.5048139614193394  0.5595821817643826   T   T   T
  0.2122319458110182  0.0236704710397578  0.5601045624584367   T   T   T
  0.7197277890823027  0.0229609052752027  0.5590790207660969   T   T   T
 -0.0036553690406760  0.2502188305064747  0.6463924684722532   T   T   T
 -0.0042402629481679  0.7389271942883946  0.6481345005658634   T   T   T
  0.4994566727101423  0.2454271503404172  0.6467861949186031   T   T   T
  0.5024461172546246  0.7378125804782195  0.6483362185798899   T   T   T
  0.2478018895520573  0.4975134122420555  0.6469961493537343   T   T   T
  0.2462246132661480 -0.0004026108865355  0.6463860130032847   T   T   T
  0.7499353209318054  0.4926823458830928  0.6469751235459099   T   T   T
  0.7462253988062103 -0.0021940292018022  0.6471171026217888   T   T   T
  0.4999889731548066  0.2499949931900858  0.7432770133073987   F   F   F
  0.4999890327507259  0.7499949931900858  0.7432770133073987   F   F   F
  0.9999889731437364  0.2499949931900858  0.7432770133073987   F   F   F
  0.9999890327396557  0.7499949931900858  0.7432770133073987   F   F   F
  0.2500005066120252  0.0000010000111388  0.7432559728590533   F   F   F
  0.2500005066350184  0.5000010132981174  0.7432559728590533   F   F   F
  0.7500004768126800  0.0000010000111388  0.7432559728590533   F   F   F
  0.7500004768356803  0.5000010132981174  0.7432559728590533   F   F   F
  0.6923765033102426  0.5459016466343876  0.4908922471412064   T   T   T
  0.6568916558504923  0.5867456991305355  0.5273831292397387   T   T   T
  0.7727773568916385  0.5157060834106857  0.5225253914164668   T   T   T
  0.6514444030708419  0.4525034137196867  0.5174869943088243   T   T   T
  0.7296459483996455  0.4928566690689932  0.4752446886098628   T   T   T
  0.7352689093781176  0.5298438360912401  0.4531410807062108   T   T   T
  0.5847316792692837  0.6165023139454081  0.5184327149450649   T   T   T
  0.8262037740456798  0.5774675006002963  0.5167362101732911   T   T   T
  0.6593246886976538  0.4167690352589776  0.5393568721629800   T   T   T
  0.7515881995462724  0.4748526821190965  0.4349225769944066   T   T   T
  0.6867449986874141  0.4249905772570459  0.4298464755687380   T   T   T
  0.6227491256640948  0.4543825625938697  0.4202977393493600   T   T   T
  0.6877405992062803  0.3493332224467910  0.4347631982020518   T   T   T
  0.5617594939362959  0.4095340174887305  0.4158304913980233   T   T   T
  0.6269334862945045  0.3040847916071044  0.4302989583818305   T   T   T
  0.5635895180909674  0.3341124284067342  0.4208917711928900   T   T   T
  0.0035239976357259  0.2039941537873414  0.5686931054968759   T   T   T
  0.0495013959755139  0.7068050604775725  0.5597960850727914   T   T   T
  0.5362120642152843  0.2254873013575850  0.5683734565772015   T   T   T
  0.5165132728577836  0.7066655649912137  0.5679673992548321   T   T   T
  0.4280414970381634  0.2821226269960215  0.5561241721901525   T   T   T
  0.4506873664178352  0.8117166207592175  0.5574157772994995   T   T   T
  0.9611587672624499  0.3151647827378595  0.5543196027685735   T   T   T
  0.9488692573955715  0.7883083100413365  0.5613143928227730   T   T   T
  0.2539468558379357  0.4362417142288077  0.5625928325947631   T   T   T
  0.1857206894863851  0.9562704074781818  0.5619187396780787   T   T   T
  0.6851401394349783  0.9591311339612256  0.5595848409107184   T   T   T
  0.2813907655214259  0.0433147632285533  0.5633247102178368   T   T   T
  0.2771447751971653  0.5613318565341924  0.5582100297649779   T   T   T
  0.7910086503131927  0.0333910191978858  0.5618838441569165   T   T   T
  0.0372168062647953  0.2018294834020865  0.6567081865814348   T   T   T
  0.0578555105718946  0.7121964180961519  0.6558722472862499   T   T   T
  0.5459383475830285  0.1971415987092658  0.6548743933975434   T   T   T
  0.5578023117135645  0.6920898064688646  0.6515628720433375   T   T   T
  0.1996353630550247  0.4515835911223007  0.6554052868850810   T   T   T
  0.1987502695813829  0.9540226978870960  0.6553127277992024   T   T   T
  0.6950764879845588  0.4498622336967884  0.6529910520549035   T   T   T
  0.6993199068092759  0.9488694322509724  0.6547176604400599   T   T   T
  0.4539154836708202  0.2879504462561481  0.6576119326120009   T   T   T
  0.4745863922385174  0.7830811883673859  0.6626785410549794   T   T   T
  0.9517776503102157  0.2991843193401541  0.6550455040706039   T   T   T
  0.9524424403729956  0.7866661455799854  0.6578231078108998   T   T   T
  0.2924419029482830  0.0435695816692463  0.6564454891710830   T   T   T
  0.2913131839187048  0.5429409480501475  0.6575707822777936   T   T   T
  0.7879218849646549  0.0426538958236490  0.6584402621192379   T   T   T
  0.7904854848617239  0.5338754708069403  0.6597494397601962   T   T   T
  0.0458624996011352  0.2041195035215679  0.7527260184237576   F   F   F
  0.0458624996205117  0.7041195035215679  0.7527260184237576   F   F   F
  0.5458624958803711  0.2041195035215679  0.7527260184237576   F   F   F
  0.5458624958997476  0.7041195035215679  0.7527260184237576   F   F   F
  0.2041189968698021  0.4541010260417480  0.7527049779914137   F   F   F
  0.2041189968729569  0.9541009664717990  0.7527049779914137   F   F   F
  0.7041189670704568  0.4541010260417480  0.7527049779914137   F   F   F
  0.7041189670736117  0.9541009664717990  0.7527049779914137   F   F   F
  0.4541400075181912  0.2958885133423621  0.7527269721025078   F   F   F
  0.4541400074903166  0.7958885431273401  0.7527269721025078   F   F   F
  0.9541400075071209  0.2958885133423621  0.7527269721025078   F   F   F
  0.9541400671111475  0.7958885431273401  0.7527269721025078   F   F   F
  0.2958824932447897  0.0459005012963090  0.7527049779914137   F   F   F
  0.2958824932702626  0.5459005236627235  0.7527049779914137   F   F   F
  0.7958824634454515  0.0459005012963090  0.7527049779914137   F   F   F
  0.7958824634709174  0.5459005236627235  0.7527049779914137   F   F   F
  0.6936868426900742  0.5249703390814658  0.5143855270946263   T   T   T
  0.4933614183640639  0.0060309054038188  0.5525483533542001   T   T   T
  0.4625469325292290  0.4817260910842618  0.5526580504444299   T   T   T
 -0.0078988466769981 -0.0141181907531552  0.5535126448282502   T   T   T
  0.0149460775541242  0.5056563341819765  0.5511713621995962   T   T   T
  0.2355765490428771  0.2366046746322015  0.5528538275771911   T   T   T
  0.2443408871208190  0.7567875723415752  0.5525827312291370   T   T   T
  0.7778913993485347  0.2306057599092158  0.5528448335821189   T   T   T
  0.7328403953250542  0.7659675438833129  0.5520573405511721   T   T   T
 -0.0052589929883658 -0.0072921578718685  0.6550072008775610   T   T   T
 -0.0069342775236794  0.5080126625994874  0.6535303690984082   T   T   T
  0.4942802511000376 -0.0072026097907217  0.6545799905422330   T   T   T
  0.4968563461432612  0.4957013593454680  0.6538022189295208   T   T   T
  0.2446703927741828  0.2464339164909734  0.6547343155173739   T   T   T
  0.2658474293585109  0.7544356623674365  0.6542691307139329   T   T   T
  0.7461921073233727  0.2508815334948720  0.6542650999913094   T   T   T
  0.7544983396306243  0.7437975359100171  0.6536018042634927   T   T   T
  0.1254971407411100  0.1120362424403821  0.6070888712501807   T   T   T
  0.1375246954694423  0.6113942859679652  0.6072072355228705   T   T   T
  0.6341337411259531  0.1103151786061781  0.6063197286653771   T   T   T
  0.6397923822870293  0.5997425064443055  0.6010989165510234   T   T   T
  0.3651006963737936  0.3748752998238921  0.6086610938219303   T   T   T
  0.3477945563557155  0.8968578849794346  0.6012344067413719   T   T   T
  0.8656479479998023  0.3832493829204162  0.6054643210970082   T   T   T
  0.8462500141429657  0.8908628985499264  0.6034977217624272   T   T   T
  0.1158412274023517  0.3664353077763303  0.6062625148735541   T   T   T
  0.1046257890993385  0.8544355549647272  0.6084050730339903   T   T   T
  0.6161360723937069  0.3634433549494351  0.6023240447061019   T   T   T
  0.6031183579229586  0.8542026573270489  0.6079363127342864   T   T   T
  0.3834562927198147  0.1334155180758631  0.6076700386721963   T   T   T
  0.3839283745204566  0.6338793576109710  0.6049261621683737   T   T   T
  0.8815185853713231  0.1281771554496401  0.6100847013732922   T   T   T
  0.8880255555428319  0.6409964999006327  0.5985720865315317   T   T   T
  0.0000000000000000  0.0000000000000000  0.7549279928135135   F   F   F
  0.0000000000193765  0.5000000000000000  0.7549279928135135   F   F   F
  0.4999999999889297  0.0000000000000000  0.7549279928135135   F   F   F
  0.5000000000083062  0.5000000000000000  0.7549279928135135   F   F   F
  0.2500005066262148  0.2500000000000000  0.7549390196750210   F   F   F
  0.2500005066455913  0.7500000000000000  0.7549390196750210   F   F   F
  0.7500004768268695  0.2500000000000000  0.7549390196750210   F   F   F
  0.7500004768462460  0.7500000000000000  0.7549390196750210   F   F   F
  0.1357904970913637  0.1142100020970958  0.7047830224073479   F   F   F
  0.1357904970574069  0.6142100095710177  0.7047830224073479   F   F   F
  0.6357904672366530  0.1142100020970958  0.7047830224073479   F   F   F
  0.6357904672580617  0.6142100095710177  0.7047830224073479   F   F   F
  0.3642095029149104  0.3857899904289823  0.7047830224073479   F   F   F
  0.3642095029342869  0.8857899904289823  0.7047830224073479   F   F   F
  0.8642095327474735  0.3857899904289823  0.7047830224073479   F   F   F
  0.8642095327114845  0.8857899904289823  0.7047830224073479   F   F   F
  0.1142179891403217  0.3642190098927216  0.7047809958420075   F   F   F
  0.1142179891596982  0.8642190098927216  0.7047809958420075   F   F   F
  0.6142179966039976  0.3642190098927216  0.7047809958420075   F   F   F
  0.6142179965680086  0.8642190098927216  0.7047809958420075   F   F   F
  0.3857820034204806  0.1357814967840127  0.7047820091166770   F   F   F
  0.3857820033926060  0.6357815265689908  0.7047820091166770   F   F   F
  0.8857820034094104  0.1357814967840127  0.7047820091166770   F   F   F
  0.8857820033815287  0.6357815265689908  0.7047820091166770   F   F   F
  0.1346669942216394  0.1153320073988340  0.8012560009966521   F   F   F
  0.1346669941856504  0.6153320073988340  0.8012560009966521   F   F   F
  0.6346669793164352  0.1153320073988340  0.8012560009966521   F   F   F
  0.6346669793358117  0.6153320073988340  0.8012560009966521   F   F   F
  0.3653329908925258  0.3846679926011660  0.8012560009966521   F   F   F
  0.3653329908565368  0.8846679926011589  0.8012560009966521   F   F   F
  0.8653329610931877  0.3846679926011660  0.8012560009966521   F   F   F
  0.8653329610571987  0.8846679926011589  0.8012560009966521   F   F   F
  0.1153285056432978  0.3653370142087482  0.8012650012928191   F   F   F
  0.1153285056073088  0.8653370142087482  0.8012650012928191   F   F   F
  0.6153284907380936  0.3653370142087482  0.8012650012928191   F   F   F
  0.6153284907574701  0.8653370142087482  0.8012650012928191   F   F   F
  0.3846715092631925  0.1346630006837373  0.8012650012928191   F   F   F
  0.3846715092785189  0.6346629857912518  0.8012650012928191   F   F   F
  0.8846715092521222  0.1346630006837373  0.8012650012928191   F   F   F
  0.8846715092674415  0.6346629857912518  0.8012650012928191   F   F   F
 -0.0076328573521547 -0.0106319171217968  0.6046797010327241   T   T   T
 -0.0014385278662560  0.5007893096302976  0.6026119162971080   T   T   T
  0.4962176477673038 -0.0044218722101685  0.6044289014801293   T   T   T
  0.4946353217230114  0.4919822781580935  0.6034664734221001   T   T   T
  0.2449266908665883  0.2432017873156634  0.6048233629015638   T   T   T
  0.2457465729218024  0.7501297189000684  0.6044778947100088   T   T   T
  0.7552836491369201  0.2467289400102627  0.6035320992057407   T   T   T
  0.7438227558345046  0.7453762304523528  0.6024392043185542   T   T   T
  0.0000005000032601  0.0000004999778866  0.7048289775829417   F   F   F
  0.0000005000163412  0.5000004768364050  0.7048289775829417   F   F   F
  0.5000004768481432  0.0000004999778866  0.7048289775829417   F   F   F
  0.5000004768612172  0.5000004768364050  0.7048289775829417   F   F   F
  0.2499999999728644  0.2499994784861386  0.7048249840801901   F   F   F
  0.2500000000044054  0.7499995231635950  0.7048249840801901   F   F   F
  0.7500000000171596  0.2499994784861386  0.7048249840801901   F   F   F
  0.7499999999933351  0.7499995231635950  0.7048249840801901   F   F   F
  0.0000000000000000  0.0000000000000000  0.8073179721848831   F   F   F
  0.0000000000193765  0.5000000000000000  0.8073179721848831   F   F   F
  0.4999999999889297  0.0000000000000000  0.8073179721848831   F   F   F
  0.5000000000083062  0.5000000000000000  0.8073179721848831   F   F   F
  0.2500000000041496  0.2500000000000000  0.8073179721848831   F   F   F
  0.2500000000235332  0.7500000000000000  0.8073179721848831   F   F   F
  0.7499999999930793  0.2500000000000000  0.8073179721848831   F   F   F
  0.7500000000124558  0.7500000000000000  0.8073179721848831   F   F   F
 
  0.00000000E+00  0.00000000E+00  0.00000000E+00
  0.00000000E+00  0.00000000E+00  0.00000000E+00
  0.00000000E+00  0.00000000E+00  0.00000000E+00
  0.00000000E+00  0.00000000E+00  0.00000000E+00
  0.00000000E+00  0.00000000E+00  0.00000000E+00
  0.00000000E+00  0.00000000E+00  0.00000000E+00
  0.00000000E+00  0.00000000E+00  0.00000000E+00
  0.00000000E+00  0.00000000E+00  0.00000000E+00
  0.00000000E+00  0.00000000E+00  0.00000000E+00
  0.00000000E+00  0.00000000E+00  0.00000000E+00
  0.00000000E+00  0.00000000E+00  0.00000000E+00
  0.00000000E+00  0.00000000E+00  0.00000000E+00
  0.00000000E+00  0.00000000E+00  0.00000000E+00
  0.00000000E+00  0.00000000E+00  0.00000000E+00
  0.00000000E+00  0.00000000E+00  0.00000000E+00
  0.00000000E+00  0.00000000E+00  0.00000000E+00
  0.00000000E+00  0.00000000E+00  0.00000000E+00
  0.00000000E+00  0.00000000E+00  0.00000000E+00
  0.00000000E+00  0.00000000E+00  0.00000000E+00
  0.00000000E+00  0.00000000E+00  0.00000000E+00
  0.00000000E+00  0.00000000E+00  0.00000000E+00
  0.00000000E+00  0.00000000E+00  0.00000000E+00
  0.00000000E+00  0.00000000E+00  0.00000000E+00
  0.00000000E+00  0.00000000E+00  0.00000000E+00
  0.00000000E+00  0.00000000E+00  0.00000000E+00
  0.00000000E+00  0.00000000E+00  0.00000000E+00
  0.00000000E+00  0.00000000E+00  0.00000000E+00
  0.00000000E+00  0.00000000E+00  0.00000000E+00
  0.00000000E+00  0.00000000E+00  0.00000000E+00
  0.00000000E+00  0.00000000E+00  0.00000000E+00
  0.00000000E+00  0.00000000E+00  0.00000000E+00
  0.00000000E+00  0.00000000E+00  0.00000000E+00
  0.00000000E+00  0.00000000E+00  0.00000000E+00
  0.00000000E+00  0.00000000E+00  0.00000000E+00
  0.00000000E+00  0.00000000E+00  0.00000000E+00
  0.00000000E+00  0.00000000E+00  0.00000000E+00
  0.00000000E+00  0.00000000E+00  0.00000000E+00
  0.00000000E+00  0.00000000E+00  0.00000000E+00
  0.00000000E+00  0.00000000E+00  0.00000000E+00
  0.00000000E+00  0.00000000E+00  0.00000000E+00
  0.00000000E+00  0.00000000E+00  0.00000000E+00
  0.00000000E+00  0.00000000E+00  0.00000000E+00
  0.00000000E+00  0.00000000E+00  0.00000000E+00
  0.00000000E+00  0.00000000E+00  0.00000000E+00
  0.00000000E+00  0.00000000E+00  0.00000000E+00
  0.00000000E+00  0.00000000E+00  0.00000000E+00
  0.00000000E+00  0.00000000E+00  0.00000000E+00
  0.00000000E+00  0.00000000E+00  0.00000000E+00
  0.00000000E+00  0.00000000E+00  0.00000000E+00
  0.00000000E+00  0.00000000E+00  0.00000000E+00
  0.00000000E+00  0.00000000E+00  0.00000000E+00
  0.00000000E+00  0.00000000E+00  0.00000000E+00
  0.00000000E+00  0.00000000E+00  0.00000000E+00
  0.00000000E+00  0.00000000E+00  0.00000000E+00
  0.00000000E+00  0.00000000E+00  0.00000000E+00
  0.00000000E+00  0.00000000E+00  0.00000000E+00
  0.00000000E+00  0.00000000E+00  0.00000000E+00
  0.00000000E+00  0.00000000E+00  0.00000000E+00
  0.00000000E+00  0.00000000E+00  0.00000000E+00
  0.00000000E+00  0.00000000E+00  0.00000000E+00
  0.00000000E+00  0.00000000E+00  0.00000000E+00
  0.00000000E+00  0.00000000E+00  0.00000000E+00
  0.00000000E+00  0.00000000E+00  0.00000000E+00
  0.00000000E+00  0.00000000E+00  0.00000000E+00
  0.00000000E+00  0.00000000E+00  0.00000000E+00
  0.00000000E+00  0.00000000E+00  0.00000000E+00
  0.00000000E+00  0.00000000E+00  0.00000000E+00
  0.00000000E+00  0.00000000E+00  0.00000000E+00
  0.00000000E+00  0.00000000E+00  0.00000000E+00
  0.00000000E+00  0.00000000E+00  0.00000000E+00
  0.00000000E+00  0.00000000E+00  0.00000000E+00
  0.00000000E+00  0.00000000E+00  0.00000000E+00
  0.00000000E+00  0.00000000E+00  0.00000000E+00
  0.00000000E+00  0.00000000E+00  0.00000000E+00
  0.00000000E+00  0.00000000E+00  0.00000000E+00
  0.00000000E+00  0.00000000E+00  0.00000000E+00
  0.00000000E+00  0.00000000E+00  0.00000000E+00
  0.00000000E+00  0.00000000E+00  0.00000000E+00
  0.00000000E+00  0.00000000E+00  0.00000000E+00
  0.00000000E+00  0.00000000E+00  0.00000000E+00
  0.00000000E+00  0.00000000E+00  0.00000000E+00
  0.00000000E+00  0.00000000E+00  0.00000000E+00
  0.00000000E+00  0.00000000E+00  0.00000000E+00
  0.00000000E+00  0.00000000E+00  0.00000000E+00
  0.00000000E+00  0.00000000E+00  0.00000000E+00
  0.00000000E+00  0.00000000E+00  0.00000000E+00
  0.00000000E+00  0.00000000E+00  0.00000000E+00
  0.00000000E+00  0.00000000E+00  0.00000000E+00
  0.00000000E+00  0.00000000E+00  0.00000000E+00
  0.00000000E+00  0.00000000E+00  0.00000000E+00
  0.00000000E+00  0.00000000E+00  0.00000000E+00
  0.00000000E+00  0.00000000E+00  0.00000000E+00
  0.00000000E+00  0.00000000E+00  0.00000000E+00
  0.00000000E+00  0.00000000E+00  0.00000000E+00
  0.00000000E+00  0.00000000E+00  0.00000000E+00
  0.00000000E+00  0.00000000E+00  0.00000000E+00
  0.00000000E+00  0.00000000E+00  0.00000000E+00
  0.00000000E+00  0.00000000E+00  0.00000000E+00
  0.00000000E+00  0.00000000E+00  0.00000000E+00
  0.00000000E+00  0.00000000E+00  0.00000000E+00
  0.00000000E+00  0.00000000E+00  0.00000000E+00
  0.00000000E+00  0.00000000E+00  0.00000000E+00
  0.00000000E+00  0.00000000E+00  0.00000000E+00
  0.00000000E+00  0.00000000E+00  0.00000000E+00
  0.00000000E+00  0.00000000E+00  0.00000000E+00
  0.00000000E+00  0.00000000E+00  0.00000000E+00
  0.00000000E+00  0.00000000E+00  0.00000000E+00
  0.00000000E+00  0.00000000E+00  0.00000000E+00
  0.00000000E+00  0.00000000E+00  0.00000000E+00
  0.00000000E+00  0.00000000E+00  0.00000000E+00
  0.00000000E+00  0.00000000E+00  0.00000000E+00
  0.00000000E+00  0.00000000E+00  0.00000000E+00
  0.00000000E+00  0.00000000E+00  0.00000000E+00
  0.00000000E+00  0.00000000E+00  0.00000000E+00
  0.00000000E+00  0.00000000E+00  0.00000000E+00
  0.00000000E+00  0.00000000E+00  0.00000000E+00
  0.00000000E+00  0.00000000E+00  0.00000000E+00
  0.00000000E+00  0.00000000E+00  0.00000000E+00
  0.00000000E+00  0.00000000E+00  0.00000000E+00
  0.00000000E+00  0.00000000E+00  0.00000000E+00