PerovskiteSurface_12951678_2            
    1.000000000000000     
    18.0608005523999999    0.0000000000000000    0.0000000000000000
    -0.0049186487000000   18.0627987840000017    0.0000000000000000
     0.0000000000000000    0.0000000000000000   62.4874992371000033
   H    C    N    I    Pb
   143    39    47    72    24
Selective dynamics
Direct
  0.4297366496024451  0.3107466345675310  0.5717619724994368   T   T   T
  0.5587654573428572  0.8249627645608090  0.5720610105537240   T   T   T
  0.9108059985170702  0.2605922267682610  0.5645358064451734   T   T   T
  0.9250766452054487  0.7387735960889444  0.5744624346516559   T   T   T
  0.3318999995411840  0.0044674259414879  0.5730675871165770   T   T   T
  0.3514596276868039  0.5341931051613736  0.5591848198147010   T   T   T
  0.8194340329336882  0.0770199303739977  0.5671752055967590   T   T   T
  0.0973755526952857  0.1816362275688725  0.5601394248944958   T   T   T
  0.1137870232745600  0.7044489637581739  0.5568487174499165   T   T   T
  0.6099294461493308  0.2302968854749365  0.5601875310841180   T   T   T
  0.4961320471790697  0.6414077620262620  0.5570349027654589   T   T   T
  0.3099997214582706  0.0945926467489205  0.5647086385209544   T   T   T
  0.2983946408812690  0.6142938739347572  0.5539892584254064   T   T   T
  0.8624580972616842 -0.0026276353542438  0.5576459218423857   T   T   T
  0.0057250787152553  0.1529517427883885  0.5643978468015387   T   T   T
  0.0348094473515555  0.6564666686106173  0.5656327561643066   T   T   T
  0.5672532336567963  0.2986339662262418  0.5753630970359177   T   T   T
  0.5626370950730284  0.6873203093543819  0.5719854256670434   T   T   T
  0.2735828389029389  0.4239030502580168  0.5718376510575064   T   T   T
  0.2269134100349531  0.9118832046495499  0.5699676770245441   T   T   T
  0.6843385412045702  0.0795431005113965  0.5675825426662329   T   T   T
  0.3850358461983945  0.2468129971780244  0.5555372255020601   T   T   T
  0.4887561907675666  0.8677907398757418  0.5575011311474751   T   T   T
  0.9517465590756461  0.3482939658540056  0.5615095117843828   T   T   T
  0.9357916371610663  0.8322869505494275  0.5679917259168300   T   T   T
  0.1778674377967952  0.4354490245516736  0.5696359370775825   T   T   T
  0.1431778277037115  0.9486111791857236  0.5604296956172307   T   T   T
  0.6362463159455206  0.0033196770562312  0.5576918841620603   T   T   T
  0.4964812554622651  0.1865422085920862  0.5464005509126703   T   T   T
  0.4391042780139109  0.7532896616192234  0.5461534277894867   T   T   T
  0.0688798961833062  0.3040580951119989  0.5573287892694637   T   T   T
  0.0548479764883639  0.8173943676424015  0.5555785264112243   T   T   T
  0.1864774911956813  0.5554000172222330  0.5578104724379522   T   T   T
  0.1914247543707737  0.0652274519064434  0.5551103377794013   T   T   T
  0.7477352884354912 -0.0615720367990215  0.5506364292251366   T   T   T
  0.4486400539500449  0.3090443259366956  0.6722405848330877   T   T   T
  0.4445203962742083  0.8090574367205020  0.6715007948804257   T   T   T
  0.9626671332919288  0.3009753408712275  0.6740973350514421   T   T   T
  0.9508200755782116  0.8004835917782605  0.6732040048467758   T   T   T
  0.2969857587825249  0.0570675435833767  0.6729050144550671   T   T   T
  0.3009543756456769  0.5537677944047362  0.6724542142668668   T   T   T
  0.8032068360785588  0.0508933663727041  0.6729017702731732   T   T   T
  0.8041397459409375  0.5562445914309830  0.6714623345681094   T   T   T
  0.0784546182926506  0.1672661237640350  0.6451301784997273   T   T   T
  0.0802364691873238  0.6727054324546914  0.6467182942744606   T   T   T
  0.5878225968998874  0.1792103407025994  0.6514470741100694   T   T   T
  0.5744999779065644  0.6720040953937496  0.6497056349868302   T   T   T
  0.1711487311074035  0.4226930129616057  0.6474829991052088   T   T   T
  0.1754630517260538  0.9174984997353978  0.6483787413633174   T   T   T
  0.6742173671326702  0.4199580665456301  0.6491475061225018   T   T   T
  0.6664493277134790  0.9230730486248403  0.6498657206645928   T   T   T
  0.0604166896690534  0.1958423148072756  0.6712406058085822   T   T   T
  0.0560153597672993  0.7015152265242484  0.6723363470395070   T   T   T
  0.5570535652795626  0.2148349422849800  0.6757212231901080   T   T   T
  0.5430044434690564  0.7045020251103773  0.6741976205268164   T   T   T
  0.1966898034408362  0.4536941550775528  0.6727853033675745   T   T   T
  0.1979969943092386  0.9520217245251963  0.6735116665191063   T   T   T
  0.7059912828396105  0.4510155321003431  0.6738364599780581   T   T   T
  0.6972085867501512  0.9531159879777368  0.6747586227235954   T   T   T
  0.4197063821803045  0.3241171769393127  0.6461007890609202   T   T   T
  0.4226699175705093  0.8346505416359995  0.6454798767948478   T   T   T
  0.9273696828956710  0.3303184351850604  0.6496552265384670   T   T   T
  0.9172857071777651  0.8246270298427698  0.6480723043763668   T   T   T
  0.3275082147214045  0.0804894684577632  0.6473867009279400   T   T   T
  0.3318047419664931  0.5770823288811847  0.6469239847979213   T   T   T
  0.8313857589472267  0.0727386500420253  0.6471582815763878   T   T   T
  0.8256538902714657  0.5830764441863339  0.6455381800660940   T   T   T
 -0.0035069094344619  0.2487997182999510  0.6296964098443155   T   T   T
 -0.0049654781478693  0.7466336244237879  0.6297052756917649   T   T   T
  0.5045167903432837  0.2442166110403520  0.6311112975451438   T   T   T
  0.5018149821172297  0.7506082232951737  0.6297527340484950   T   T   T
  0.2543527419400380 -0.0049397387324738  0.6301571529488582   T   T   T
  0.2534738647079259  0.4971433729866781  0.6295360746741209   T   T   T
  0.7475057968457091 -0.0052544431847034  0.6306955752295295   T   T   T
  0.7466772524073951  0.4994757338342402  0.6295560388115524   T   T   T
  0.4487450123026875  0.3012839853932547  0.7688890099553589   F   F   F
  0.4487450122585699  0.8012839555529183  0.7688890099553589   F   F   F
  0.9487449526597018  0.3012839853932547  0.7688890099553589   F   F   F
  0.9487450123028651  0.8012839555529183  0.7688890099553589   F   F   F
  0.3012759983606372  0.0512944981605372  0.7688729763004289   F   F   F
  0.3012759983266733  0.5512945055790937  0.7688729763004289   F   F   F
  0.8012759685612991  0.0512944981605372  0.7688729763004289   F   F   F
  0.8012759685273281  0.5512945055790937  0.7688729763004289   F   F   F
  0.0787710025712300  0.1711805015919765  0.7434419989625454   F   F   F
  0.0787710025865564  0.6711804866994839  0.7434419989625454   F   F   F
  0.5787709951407791  0.1711805015919765  0.7434419989625454   F   F   F
  0.5787709951560984  0.6711804866994839  0.7434419989625454   F   F   F
  0.1711995005657982  0.4211744964317958  0.7434210181261207   F   F   F
  0.1711995005379165  0.9211745262167668  0.7434210181261207   F   F   F
  0.6711995005547209  0.4211744964317958  0.7434210181261207   F   F   F
  0.6711995005822118  0.9211745262167668  0.7434210181261207   F   F   F
  0.0512560010060099  0.1987150013639862  0.7688890099553589   F   F   F
  0.0512560010172578  0.6987149715236498  0.7688890099553589   F   F   F
  0.5512560009949325  0.1987150013639862  0.7688890099553589   F   F   F
  0.5512560010061875  0.6987149715236498  0.7688890099553589   F   F   F
  0.1987234949972319  0.4487039745014059  0.7688720226216859   F   F   F
  0.1987234950247228  0.9487040042863839  0.7688720226216859   F   F   F
  0.6987234949861616  0.4487039745014059  0.7688720226216859   F   F   F
  0.6987234950136525  0.9487040042863839  0.7688720226216859   F   F   F
  0.4212315082396927  0.3288174867596396  0.7434419989625454   F   F   F
  0.4212315082590763  0.8288174867596396  0.7434419989625454   F   F   F
  0.9212314486520796  0.3288174867596396  0.7434419989625454   F   F   F
  0.9212315082479989  0.8288174867596396  0.7434419989625454   F   F   F
  0.3288004994152729  0.0788249969468282  0.7434210181261207   F   F   F
  0.3288004994346494  0.5788249969468282  0.7434210181261207   F   F   F
  0.8288004994595681  0.0788249969468282  0.7434210181261207   F   F   F
  0.8288004994235791  0.5788249969468282  0.7434210181261207   F   F   F
  0.0000034999835279  0.2500014901345224  0.7258219718940495   F   F   F
  0.0000035000029044  0.7500014901345224  0.7258219718940495   F   F   F
  0.5000035166937522  0.2500014901345224  0.7258219718940495   F   F   F
  0.5000035166577632  0.7500014901345224  0.7258219718940495   F   F   F
  0.2500005066165230  0.0000000000000000  0.7258039712857141   F   F   F
  0.2500005066359066  0.5000000000000000  0.7258039712857141   F   F   F
  0.7500004768171777  0.0000000000000000  0.7258039712857141   F   F   F
  0.7500004768365613  0.5000000000000000  0.7258039712857141   F   F   F
  0.6611845020389123  0.5531359410322754  0.5383977014985774   T   T   T
  0.7208447834953488  0.6251567804778393  0.5470655135847216   T   T   T
  0.8398590614343203  0.4767195137504372  0.5584122981440198   T   T   T
  0.7976356957231225  0.5602318363417335  0.5666412168481184   T   T   T
  0.8868941354167131  0.5181480721024496  0.5268512601813254   T   T   T
  0.8334792324625805  0.5715520449448841  0.5085131487839980   T   T   T
  0.6992435158705406  0.4430332114675182  0.5283533906409974   T   T   T
  0.7401226408375607  0.4827295309386450  0.5054006099560568   T   T   T
  0.7351652848259145  0.6739757617484573  0.5121140970396847   T   T   T
  0.7178947044628936  0.5878619844038886  0.4996799376038518   T   T   T
  0.5822708214924411  0.6123180704683149  0.5193677856121137   T   T   T
  0.6091876520815758  0.7036458804538906  0.5130584428850442   T   T   T
  0.7191542837693511  0.4088687758788772  0.5621547284884127   T   T   T
  0.7394994264388298  0.4595512235902307  0.5855025203163566   T   T   T
  0.6719649049136233  0.4939283247557725  0.5677536864223822   T   T   T
  0.8322911897853263  0.6767020127374076  0.5365115372030558   T   T   T
  0.8902682212925324  0.6205110553064751  0.5529278576695361   T   T   T
  0.9219720398672877  0.6501903252986244  0.5275457235244618   T   T   T
  0.8206731993495638  0.3778750860228136  0.5368599764475016   T   T   T
  0.7832966057037523  0.3542616037415383  0.5118398729060409   T   T   T
  0.8597613551489023  0.4154347370884062  0.5128649713026280   T   T   T
  0.5354604437131748  0.6452448553886887  0.4837085688847648   T   T   T
  0.6253881212917011  0.6675831262120346  0.4745621708236353   T   T   T
  0.5240732136664078  0.5074868251467254  0.5006328721355673   T   T   T
  0.6958292369505582  0.5757815771884590  0.4570195428157229   T   T   T
  0.5538402513522057  0.3765428671784970  0.4933763082099044   T   T   T
  0.7265999938716773  0.4439923409103056  0.4499418747639317   T   T   T
  0.6561971181382719  0.3435721347948891  0.4682888283766496   T   T   T
  0.0239332443600132  0.2645158156097380  0.5598540038033643   T   T   T
  0.0239417765548028  0.7687038825030164  0.5608534925910734   T   T   T
  0.4974816772564412  0.2353149746516368  0.5567716151030785   T   T   T
  0.4887547514337412  0.7545772949170142  0.5561515539261919   T   T   T
  0.2374231904391229  0.5242180230339518  0.5604795821837740   T   T   T
  0.2270795444792193  0.0216016762621063  0.5614196336611956   T   T   T
  0.7494314470896134 -0.0049849086963925  0.5569423294753547   T   T   T
  0.0028423288489951  0.2488153097866214  0.6470639320386142   T   T   T
 -0.0014130635926909  0.7485245345665161  0.6471260567241953   T   T   T
  0.5039277248361755  0.2516080416917714  0.6484345466781698   T   T   T
  0.4985729896593310  0.7531870775716016  0.6471596913747595   T   T   T
  0.2515251102674428  0.4998651365337557  0.6469726398338791   T   T   T
  0.2512363255304027 -0.0007894574330329  0.6475595155401996   T   T   T
  0.7502450143509516  0.5010904332363850  0.6469789744556157   T   T   T
  0.7486734130058662 -0.0021633103398067  0.6481299240920798   T   T   T
  0.4999889731548066  0.2499949931900858  0.7432770133073987   F   F   F
  0.4999890327507259  0.7499949931900858  0.7432770133073987   F   F   F
  0.9999889731437364  0.2499949931900858  0.7432770133073987   F   F   F
  0.9999890327396557  0.7499949931900858  0.7432770133073987   F   F   F
  0.2500005066120252  0.0000010000111388  0.7432559728590533   F   F   F
  0.2500005066350184  0.5000010132981174  0.7432559728590533   F   F   F
  0.7500004768126800  0.0000010000111388  0.7432559728590533   F   F   F
  0.7500004768356803  0.5000010132981174  0.7432559728590533   F   F   F
  0.7107646459281008  0.5850702864643885  0.5341771554557779   T   T   T
  0.7877787049588794  0.5080627785825003  0.5580971076922447   T   T   T
  0.8449754538406794  0.5618334441197891  0.5255314709240385   T   T   T
  0.7518215093368357  0.4622521325209573  0.5215547403949995   T   T   T
  0.7000274754503250  0.6243122364997961  0.5127814920720992   T   T   T
  0.6183943513583410  0.6452475445695877  0.5088237187295741   T   T   T
  0.7254445312942350  0.4652406814667185  0.5684926670433027   T   T   T
  0.8728780382955675  0.6314382660814991  0.5363935335492671   T   T   T
  0.8080838450044801  0.4000431670351972  0.5209332872850295   T   T   T
  0.5943881953448044  0.6309439765897210  0.4854398471258464   T   T   T
  0.6077458426401177  0.5511969360100366  0.4792478330338446   T   T   T
  0.5678822162601075  0.4939765157843790  0.4892009267308792   T   T   T
  0.6646327488543311  0.5319351397457029  0.4650397549332426   T   T   T
  0.5849961175510640  0.4199107804077590  0.4852532730937453   T   T   T
  0.6820985275982878  0.4577122388104324  0.4610545854868568   T   T   T
  0.6425816988011116  0.4014398488115207  0.4712503579367740   T   T   T
  0.0422196264674477  0.1942458257060254  0.5607905612050099   T   T   T
  0.0579491171214169  0.7044332172539286  0.5601424347957282   T   T   T
  0.5618123601284100  0.2567761091795086  0.5643121552487224   T   T   T
  0.5189023955557580  0.6910595601554718  0.5615316735274025   T   T   T
  0.4341789642000692  0.2679845814302466  0.5610004246643208   T   T   T
  0.5141293540510128  0.8195004474714570  0.5620118295800322   T   T   T
  0.9568079877094617  0.2918872480371529  0.5614453821263602   T   T   T
  0.9551667019277711  0.7793947523190188  0.5669273968719775   T   T   T
  0.2298311162865364  0.4549080100224526  0.5665295316932043   T   T   T
  0.1986676539728465  0.9550590433097079  0.5633528093758638   T   T   T
  0.6861551326033488  0.0280984809530967  0.5607636326897426   T   T   T
  0.2953195368494141  0.0402803037477916  0.5660671041910407   T   T   T
  0.3004402849818452  0.5585513389613055  0.5572162336839557   T   T   T
  0.8143075629864055  0.0254630325086597  0.5605174096901997   T   T   T
  0.0499924671963436  0.2013582651211589  0.6552468347476883   T   T   T
  0.0478182752969203  0.7052542613571091  0.6562098392010787   T   T   T
  0.5522197930386912  0.2130719455781306  0.6594681821981583   T   T   T
  0.5410474834899398  0.7073669064149791  0.6579087886679975   T   T   T
  0.2035519462792593  0.4565439467579826  0.6565952943876127   T   T   T
  0.2054638621341895  0.9539475035265462  0.6573285663967892   T   T   T
  0.7080718629649415  0.4545725643001798  0.6575548608926450   T   T   T
  0.7015133380266180  0.9558021038090088  0.6584902990354369   T   T   T
  0.4548275835827503  0.2977282210497849  0.6563201484656842   T   T   T
  0.4527736657146755  0.8017205785227851  0.6554569145086788   T   T   T
  0.9621416919168103  0.2961287989414938  0.6578391540918677   T   T   T
  0.9531139515646906  0.7937875269484960  0.6569969842316533   T   T   T
  0.2939088342223868  0.0486538328824784  0.6567687337899947   T   T   T
  0.2973772254984517  0.5461002739274949  0.6562964777880872   T   T   T
  0.7970783912717530  0.0430429712478266  0.6568114498593323   T   T   T
  0.7961165361060984  0.5493149985943209  0.6554005170292538   T   T   T
  0.0458624996011352  0.2041195035215679  0.7527260184237576   F   F   F
  0.0458624996205117  0.7041195035215679  0.7527260184237576   F   F   F
  0.5458624958803711  0.2041195035215679  0.7527260184237576   F   F   F
  0.5458624958997476  0.7041195035215679  0.7527260184237576   F   F   F
  0.2041189968698021  0.4541010260417480  0.7527049779914137   F   F   F
  0.2041189968729569  0.9541009664717990  0.7527049779914137   F   F   F
  0.7041189670704568  0.4541010260417480  0.7527049779914137   F   F   F
  0.7041189670736117  0.9541009664717990  0.7527049779914137   F   F   F
  0.4541400075181912  0.2958885133423621  0.7527269721025078   F   F   F
  0.4541400074903166  0.7958885431273401  0.7527269721025078   F   F   F
  0.9541400075071209  0.2958885133423621  0.7527269721025078   F   F   F
  0.9541400671111475  0.7958885431273401  0.7527269721025078   F   F   F
  0.2958824932447897  0.0459005012963090  0.7527049779914137   F   F   F
  0.2958824932702626  0.5459005236627235  0.7527049779914137   F   F   F
  0.7958824634454515  0.0459005012963090  0.7527049779914137   F   F   F
  0.7958824634709174  0.5459005236627235  0.7527049779914137   F   F   F
  0.7742691132443645  0.5295324447769726  0.5347809736858602   T   T   T
  0.4914015573961110  0.0155700337753450  0.5530198873135219   T   T   T
  0.4929325395667934  0.4947320993607910  0.5525706639464761   T   T   T
  0.0061167409976999 -0.0182348988125959  0.5527929658312986   T   T   T
  0.0234295542638639  0.4847312991419914  0.5537126971974408   T   T   T
  0.2397154370952186  0.2326678416078148  0.5530211869697541   T   T   T
  0.2506714786374692  0.7495516914159780  0.5524190137984741   T   T   T
  0.7552945460240452  0.2248524275843128  0.5541730131146951   T   T   T
  0.7254535711456844  0.7857917998718200  0.5539606903707005   T   T   T
 -0.0002652481343590  0.0008020014339562  0.6546502454426243   T   T   T
 -0.0027634129228624  0.5036342509053807  0.6546390724365395   T   T   T
  0.4959842971449244  0.0035223841241789  0.6548126550473611   T   T   T
  0.5027945081948122  0.5018103172010898  0.6544253823791297   T   T   T
  0.2521915288697926  0.2542888301103348  0.6546590506870326   T   T   T
  0.2532330791485684  0.7516159035445134  0.6545329615084995   T   T   T
  0.7586256514518156  0.2470137092252958  0.6549393270204585   T   T   T
  0.7491094237323553  0.7475499824653633  0.6543819870387149   T   T   T
  0.1386071318519681  0.1089731655608912  0.6077615147164764   T   T   T
  0.1383681318351845  0.6133824427016231  0.6074335092322634   T   T   T
  0.6344657235560207  0.1206485250885988  0.6102213784821181   T   T   T
  0.6317567168683436  0.6221640843062938  0.6051447336761695   T   T   T
  0.3672360018026461  0.3826286409029747  0.6046223515642890   T   T   T
  0.3623719448507492  0.8909567157597741  0.6036614388461677   T   T   T
  0.8699704066530222  0.3834970758793916  0.6079040854752072   T   T   T
  0.8641853622789818  0.8875689538849609  0.6085604919164664   T   T   T
  0.1145948571567622  0.3632379948684163  0.6080564104734244   T   T   T
  0.1146603706673648  0.8587234905642852  0.6085646964098772   T   T   T
  0.6163097789148378  0.3642796514323910  0.6100134083504333   T   T   T
  0.6150844441579593  0.8715646205065941  0.6099175675462731   T   T   T
  0.3873369540923058  0.1408535900347171  0.6092936802728803   T   T   T
  0.3870328118710314  0.6338291780599727  0.6078339761082808   T   T   T
  0.8937974344848544  0.1370960427134226  0.6041170126989910   T   T   T
  0.8842442690739835  0.6364222259317055  0.6029276300852873   T   T   T
  0.0000000000000000  0.0000000000000000  0.7549279928135135   F   F   F
  0.0000000000193765  0.5000000000000000  0.7549279928135135   F   F   F
  0.4999999999889297  0.0000000000000000  0.7549279928135135   F   F   F
  0.5000000000083062  0.5000000000000000  0.7549279928135135   F   F   F
  0.2500005066262148  0.2500000000000000  0.7549390196750210   F   F   F
  0.2500005066455913  0.7500000000000000  0.7549390196750210   F   F   F
  0.7500004768268695  0.2500000000000000  0.7549390196750210   F   F   F
  0.7500004768462460  0.7500000000000000  0.7549390196750210   F   F   F
  0.1357904970913637  0.1142100020970958  0.7047830224073479   F   F   F
  0.1357904970574069  0.6142100095710177  0.7047830224073479   F   F   F
  0.6357904672366530  0.1142100020970958  0.7047830224073479   F   F   F
  0.6357904672580617  0.6142100095710177  0.7047830224073479   F   F   F
  0.3642095029149104  0.3857899904289823  0.7047830224073479   F   F   F
  0.3642095029342869  0.8857899904289823  0.7047830224073479   F   F   F
  0.8642095327474735  0.3857899904289823  0.7047830224073479   F   F   F
  0.8642095327114845  0.8857899904289823  0.7047830224073479   F   F   F
  0.1142179891403217  0.3642190098927216  0.7047809958420075   F   F   F
  0.1142179891596982  0.8642190098927216  0.7047809958420075   F   F   F
  0.6142179966039976  0.3642190098927216  0.7047809958420075   F   F   F
  0.6142179965680086  0.8642190098927216  0.7047809958420075   F   F   F
  0.3857820034204806  0.1357814967840127  0.7047820091166770   F   F   F
  0.3857820033926060  0.6357815265689908  0.7047820091166770   F   F   F
  0.8857820034094104  0.1357814967840127  0.7047820091166770   F   F   F
  0.8857820033815287  0.6357815265689908  0.7047820091166770   F   F   F
  0.1346669942216394  0.1153320073988340  0.8012560009966521   F   F   F
  0.1346669941856504  0.6153320073988340  0.8012560009966521   F   F   F
  0.6346669793164352  0.1153320073988340  0.8012560009966521   F   F   F
  0.6346669793358117  0.6153320073988340  0.8012560009966521   F   F   F
  0.3653329908925258  0.3846679926011660  0.8012560009966521   F   F   F
  0.3653329908565368  0.8846679926011589  0.8012560009966521   F   F   F
  0.8653329610931877  0.3846679926011660  0.8012560009966521   F   F   F
  0.8653329610571987  0.8846679926011589  0.8012560009966521   F   F   F
  0.1153285056432978  0.3653370142087482  0.8012650012928191   F   F   F
  0.1153285056073088  0.8653370142087482  0.8012650012928191   F   F   F
  0.6153284907380936  0.3653370142087482  0.8012650012928191   F   F   F
  0.6153284907574701  0.8653370142087482  0.8012650012928191   F   F   F
  0.3846715092631925  0.1346630006837373  0.8012650012928191   F   F   F
  0.3846715092785189  0.6346629857912518  0.8012650012928191   F   F   F
  0.8846715092521222  0.1346630006837373  0.8012650012928191   F   F   F
  0.8846715092674415  0.6346629857912518  0.8012650012928191   F   F   F
  0.0032617198497427 -0.0061550211516793  0.6049557566231673   T   T   T
  0.0022722482501409  0.4992506586072464  0.6045157547813069   T   T   T
  0.4998102148883569  0.0074364104414146  0.6046659936992566   T   T   T
  0.5024936431800300  0.5006736539472515  0.6041527238972900   T   T   T
  0.2467411252425984  0.2454601582452290  0.6048348564574052   T   T   T
  0.2535205540647518  0.7471715085016103  0.6043349083961719   T   T   T
  0.7545047581324327  0.2493749106464749  0.6050739826840752   T   T   T
  0.7463005628639587  0.7576287810058165  0.6034294064973328   T   T   T
  0.0000005000032601  0.0000004999778866  0.7048289775829417   F   F   F
  0.0000005000163412  0.5000004768364050  0.7048289775829417   F   F   F
  0.5000004768481432  0.0000004999778866  0.7048289775829417   F   F   F
  0.5000004768612172  0.5000004768364050  0.7048289775829417   F   F   F
  0.2499999999728644  0.2499994784861386  0.7048249840801901   F   F   F
  0.2500000000044054  0.7499995231635950  0.7048249840801901   F   F   F
  0.7500000000171596  0.2499994784861386  0.7048249840801901   F   F   F
  0.7499999999933351  0.7499995231635950  0.7048249840801901   F   F   F
  0.0000000000000000  0.0000000000000000  0.8073179721848831   F   F   F
  0.0000000000193765  0.5000000000000000  0.8073179721848831   F   F   F
  0.4999999999889297  0.0000000000000000  0.8073179721848831   F   F   F
  0.5000000000083062  0.5000000000000000  0.8073179721848831   F   F   F
  0.2500000000041496  0.2500000000000000  0.8073179721848831   F   F   F
  0.2500000000235332  0.7500000000000000  0.8073179721848831   F   F   F
  0.7499999999930793  0.2500000000000000  0.8073179721848831   F   F   F
  0.7500000000124558  0.7500000000000000  0.8073179721848831   F   F   F
 
  0.00000000E+00  0.00000000E+00  0.00000000E+00
  0.00000000E+00  0.00000000E+00  0.00000000E+00
  0.00000000E+00  0.00000000E+00  0.00000000E+00
  0.00000000E+00  0.00000000E+00  0.00000000E+00
  0.00000000E+00  0.00000000E+00  0.00000000E+00
  0.00000000E+00  0.00000000E+00  0.00000000E+00
  0.00000000E+00  0.00000000E+00  0.00000000E+00
  0.00000000E+00  0.00000000E+00  0.00000000E+00
  0.00000000E+00  0.00000000E+00  0.00000000E+00
  0.00000000E+00  0.00000000E+00  0.00000000E+00
  0.00000000E+00  0.00000000E+00  0.00000000E+00
  0.00000000E+00  0.00000000E+00  0.00000000E+00
  0.00000000E+00  0.00000000E+00  0.00000000E+00
  0.00000000E+00  0.00000000E+00  0.00000000E+00
  0.00000000E+00  0.00000000E+00  0.00000000E+00
  0.00000000E+00  0.00000000E+00  0.00000000E+00
  0.00000000E+00  0.00000000E+00  0.00000000E+00
  0.00000000E+00  0.00000000E+00  0.00000000E+00
  0.00000000E+00  0.00000000E+00  0.00000000E+00
  0.00000000E+00  0.00000000E+00  0.00000000E+00
  0.00000000E+00  0.00000000E+00  0.00000000E+00
  0.00000000E+00  0.00000000E+00  0.00000000E+00
  0.00000000E+00  0.00000000E+00  0.00000000E+00
  0.00000000E+00  0.00000000E+00  0.00000000E+00
  0.00000000E+00  0.00000000E+00  0.00000000E+00
  0.00000000E+00  0.00000000E+00  0.00000000E+00
  0.00000000E+00  0.00000000E+00  0.00000000E+00
  0.00000000E+00  0.00000000E+00  0.00000000E+00
  0.00000000E+00  0.00000000E+00  0.00000000E+00
  0.00000000E+00  0.00000000E+00  0.00000000E+00
  0.00000000E+00  0.00000000E+00  0.00000000E+00
  0.00000000E+00  0.00000000E+00  0.00000000E+00
  0.00000000E+00  0.00000000E+00  0.00000000E+00
  0.00000000E+00  0.00000000E+00  0.00000000E+00
  0.00000000E+00  0.00000000E+00  0.00000000E+00
  0.00000000E+00  0.00000000E+00  0.00000000E+00
  0.00000000E+00  0.00000000E+00  0.00000000E+00
  0.00000000E+00  0.00000000E+00  0.00000000E+00
  0.00000000E+00  0.00000000E+00  0.00000000E+00
  0.00000000E+00  0.00000000E+00  0.00000000E+00
  0.00000000E+00  0.00000000E+00  0.00000000E+00
  0.00000000E+00  0.00000000E+00  0.00000000E+00
  0.00000000E+00  0.00000000E+00  0.00000000E+00
  0.00000000E+00  0.00000000E+00  0.00000000E+00
  0.00000000E+00  0.00000000E+00  0.00000000E+00
  0.00000000E+00  0.00000000E+00  0.00000000E+00
  0.00000000E+00  0.00000000E+00  0.00000000E+00
  0.00000000E+00  0.00000000E+00  0.00000000E+00
  0.00000000E+00  0.00000000E+00  0.00000000E+00
  0.00000000E+00  0.00000000E+00  0.00000000E+00
  0.00000000E+00  0.00000000E+00  0.00000000E+00
  0.00000000E+00  0.00000000E+00  0.00000000E+00
  0.00000000E+00  0.00000000E+00  0.00000000E+00
  0.00000000E+00  0.00000000E+00  0.00000000E+00
  0.00000000E+00  0.00000000E+00  0.00000000E+00
  0.00000000E+00  0.00000000E+00  0.00000000E+00
  0.00000000E+00  0.00000000E+00  0.00000000E+00
  0.00000000E+00  0.00000000E+00  0.00000000E+00
  0.00000000E+00  0.00000000E+00  0.00000000E+00
  0.00000000E+00  0.00000000E+00  0.00000000E+00
  0.00000000E+00  0.00000000E+00  0.00000000E+00
  0.00000000E+00  0.00000000E+00  0.00000000E+00
  0.00000000E+00  0.00000000E+00  0.00000000E+00
  0.00000000E+00  0.00000000E+00  0.00000000E+00
  0.00000000E+00  0.00000000E+00  0.00000000E+00
  0.00000000E+00  0.00000000E+00  0.00000000E+00
  0.00000000E+00  0.00000000E+00  0.00000000E+00
  0.00000000E+00  0.00000000E+00  0.00000000E+00
  0.00000000E+00  0.00000000E+00  0.00000000E+00
  0.00000000E+00  0.00000000E+00  0.00000000E+00
  0.00000000E+00  0.00000000E+00  0.00000000E+00
  0.00000000E+00  0.00000000E+00  0.00000000E+00
  0.00000000E+00  0.00000000E+00  0.00000000E+00
  0.00000000E+00  0.00000000E+00  0.00000000E+00
  0.00000000E+00  0.00000000E+00  0.00000000E+00
  0.00000000E+00  0.00000000E+00  0.00000000E+00
  0.00000000E+00  0.00000000E+00  0.00000000E+00
  0.00000000E+00  0.00000000E+00  0.00000000E+00
  0.00000000E+00  0.00000000E+00  0.00000000E+00
  0.00000000E+00  0.00000000E+00  0.00000000E+00
  0.00000000E+00  0.00000000E+00  0.00000000E+00
  0.00000000E+00  0.00000000E+00  0.00000000E+00
  0.00000000E+00  0.00000000E+00  0.00000000E+00
  0.00000000E+00  0.00000000E+00  0.00000000E+00
  0.00000000E+00  0.00000000E+00  0.00000000E+00
  0.00000000E+00  0.00000000E+00  0.00000000E+00
  0.00000000E+00  0.00000000E+00  0.00000000E+00
  0.00000000E+00  0.00000000E+00  0.00000000E+00
  0.00000000E+00  0.00000000E+00  0.00000000E+00
  0.00000000E+00  0.00000000E+00  0.00000000E+00
  0.00000000E+00  0.00000000E+00  0.00000000E+00
  0.00000000E+00  0.00000000E+00  0.00000000E+00
  0.00000000E+00  0.00000000E+00  0.00000000E+00
  0.00000000E+00  0.00000000E+00  0.00000000E+00
  0.00000000E+00  0.00000000E+00  0.00000000E+00
  0.00000000E+00  0.00000000E+00  0.00000000E+00
  0.00000000E+00  0.00000000E+00  0.00000000E+00
  0.00000000E+00  0.00000000E+00  0.00000000E+00
  0.00000000E+00  0.00000000E+00  0.00000000E+00
  0.00000000E+00  0.00000000E+00  0.00000000E+00
  0.00000000E+00  0.00000000E+00  0.00000000E+00
  0.00000000E+00  0.00000000E+00  0.00000000E+00
  0.00000000E+00  0.00000000E+00  0.00000000E+00
  0.00000000E+00  0.00000000E+00  0.00000000E+00
  0.00000000E+00  0.00000000E+00  0.00000000E+00
  0.00000000E+00  0.00000000E+00  0.00000000E+00
  0.00000000E+00  0.00000000E+00  0.00000000E+00
  0.00000000E+00  0.00000000E+00  0.00000000E+00
  0.00000000E+00  0.00000000E+00  0.00000000E+00
  0.00000000E+00  0.00000000E+00  0.00000000E+00
  0.00000000E+00  0.00000000E+00  0.00000000E+00
  0.00000000E+00  0.00000000E+00  0.00000000E+00
  0.00000000E+00  0.00000000E+00  0.00000000E+00
  0.00000000E+00  0.00000000E+00  0.00000000E+00
  0.00000000E+00  0.00000000E+00  0.00000000E+00
  0.00000000E+00  0.00000000E+00  0.00000000E+00
  0.00000000E+00  0.00000000E+00  0.00000000E+00
  0.00000000E+00  0.00000000E+00  0.00000000E+00
  0.00000000E+00  0.00000000E+00  0.00000000E+00
  0.00000000E+00  0.00000000E+00  0.00000000E+00