PerovskiteSurface_12951678_0            
    1.000000000000000     
    18.0608005523999999    0.0000000000000000    0.0000000000000000
    -0.0049186487000000   18.0627987840000017    0.0000000000000000
     0.0000000000000000    0.0000000000000000   62.4874992371000033
   H    C    N    I    Pb
   143    39    47    72    24
Selective dynamics
Direct
  0.4907094606545945  0.3469679468139095  0.5692088745245885   T   T   T
  0.4860641603007736  0.8648997920292227  0.5636069454889392   T   T   T
  0.9803613692318314  0.3383537620016384  0.5657151586779989   T   T   T
  0.0238568985380609  0.8298661331865486  0.5692824229688825   T   T   T
  0.2774820595235895  0.0662874697853273  0.5834227530984429   T   T   T
  0.2280297552599275  0.5753715036611611  0.5758997255145764   T   T   T
  0.8218054255441970  0.0745513996986848  0.5721967475367268   T   T   T
  0.0600036451279045  0.1514181274118715  0.5631696376409984   T   T   T
  0.0432828399090012  0.6324122186542503  0.5570642548880704   T   T   T
  0.5571084307837887  0.1597747951628955  0.5597076840828409   T   T   T
  0.5056344180943851  0.6642276827922957  0.5670896461356751   T   T   T
  0.2843536527036938  0.1126105853121629  0.5592020835997797   T   T   T
  0.3230599491363025  0.5725844098026132  0.5699300068860297   T   T   T
  0.8729739129222971  0.0101759257069203  0.5576922756995529   T   T   T
  0.0862048994767057  0.2431790134281776  0.5687743126382374   T   T   T
  0.0980992283786712  0.7117097898129928  0.5610591710163387   T   T   T
  0.5902094696850904  0.2483431241839415  0.5666670623002936   T   T   T
  0.5479360844158722  0.7471510373858120  0.5758075694677991   T   T   T
  0.1556627119288206  0.4595742054556978  0.5641593413188813   T   T   T
  0.2239709592103797  0.9393338764058352  0.5825908447615999   T   T   T
  0.6850593161478151  0.0592972249543568  0.5727256490285947   T   T   T
  0.4008131513147214  0.3165132821355868  0.5628127241929426   T   T   T
  0.4007102119740787  0.8527699562000697  0.5512524882527368   T   T   T
  0.8934601706735267  0.2976221065069464  0.5605242555928803   T   T   T
  0.9277568926391742  0.8201053339228904  0.5661525490759517   T   T   T
  0.2126116861011547  0.3862740295753208  0.5558447301187303   T   T   T
  0.2123462535565926  0.8983127818906049  0.5577976293518848   T   T   T
  0.6481705105604822  0.9872473328505020  0.5578399545243361   T   T   T
  0.4371328014411925  0.1974989437720618  0.5559127934288429   T   T   T
  0.4082381940333243  0.7252264072293996  0.5508576558997318   T   T   T
 -0.0617372308251647  0.1806035296957862  0.5575293220056152   T   T   T
 -0.0673406035181549  0.6970359747458486  0.5587439239738775   T   T   T
  0.3201157318834970  0.4554087046300143  0.5567527197525814   T   T   T
  0.2461249910664842  0.0081006137543891  0.5395449522832808   T   T   T
  0.7660415852277912 -0.0547068493669517  0.5468233855547339   T   T   T
  0.4307401632497503  0.3003064833421182  0.6703454191065763   T   T   T
  0.4274084577641387  0.7897023293890828  0.6703002718391745   T   T   T
  0.9475763787554029  0.2976466116866313  0.6734147836174544   T   T   T
  0.9494146922551917  0.8101447737856033  0.6723932100894382   T   T   T
  0.3085630294587678  0.0541873683125458  0.6735126851902591   T   T   T
  0.2948363928494610  0.5485866083159047  0.6748961571208413   T   T   T
  0.8081893243544570  0.0577657593063720  0.6725243700967073   T   T   T
  0.8166973498071668  0.5495902805535224  0.6709377182251494   T   T   T
  0.0793792511504418  0.1725799274024486  0.6467943660303618   T   T   T
  0.0727485778756161  0.6693434782232075  0.6493995290568735   T   T   T
  0.5822798641787108  0.1806456269529385  0.6523967145853932   T   T   T
  0.5893254474197708  0.6871151471497142  0.6513539789669370   T   T   T
  0.1684768057627335  0.4241048012466557  0.6462499732963999   T   T   T
  0.1724129411275807  0.9243787014151036  0.6508754903542360   T   T   T
  0.6682992404469665  0.4311324628045999  0.6501849851209025   T   T   T
  0.6741707063198316  0.9235314981942575  0.6513344337927816   T   T   T
  0.0515971290355572  0.1972499623717384  0.6724721795180452   T   T   T
  0.0498882852606987  0.7072141359337144  0.6740205142148761   T   T   T
  0.5290217455028818  0.1979061306459824  0.6749585323675100   T   T   T
  0.5324404438068395  0.6937881436762464  0.6736183835214334   T   T   T
  0.1928141485435644  0.4475686581886315  0.6722058770285980   T   T   T
  0.2055822446012139  0.9526532885852522  0.6755876518011208   T   T   T
  0.7162626748542023  0.4477769495804656  0.6736264894222466   T   T   T
  0.7100167581483927  0.9529654546111631  0.6754830759117899   T   T   T
  0.4243846052404376  0.3361108020290965  0.6445269210196879   T   T   T
  0.4206357536944613  0.8318868963731891  0.6453454808410684   T   T   T
  0.9189237744743608  0.3270033556939850  0.6481600955001497   T   T   T
  0.9188460504828296  0.8304467346559945  0.6465916207131626   T   T   T
  0.3310111381314116  0.0805753323559566  0.6475085372042382   T   T   T
  0.3270765673553743  0.5802470897589823  0.6502687501480795   T   T   T
  0.8266741568626867  0.0855492432945937  0.6463571241516157   T   T   T
  0.8279876232809640  0.5860683965117163  0.6453237060439164   T   T   T
 -0.0013626224742068  0.2515217207191981  0.6298167910220138   T   T   T
  0.9923919943121414  0.7434160523777998  0.6302796033547772   T   T   T
  0.5201570202631799  0.2650588618482749  0.6312268164415838   T   T   T
  0.5221269665039668  0.7711283819593029  0.6313079067727294   T   T   T
  0.2480015138426475  0.0018439469845758  0.6315186479214921   T   T   T
  0.2511383148446670  0.5049982206905321  0.6304433848859431   T   T   T
  0.7441791883024841  0.0048669274398740  0.6310177961152070   T   T   T
  0.7357237653794755  0.5158326759088204  0.6302208686575398   T   T   T
  0.4487450123026875  0.3012839853932547  0.7688890099553589   F   F   F
  0.4487450122585699  0.8012839555529183  0.7688890099553589   F   F   F
  0.9487449526597018  0.3012839853932547  0.7688890099553589   F   F   F
  0.9487450123028651  0.8012839555529183  0.7688890099553589   F   F   F
  0.3012759983606372  0.0512944981605372  0.7688729763004289   F   F   F
  0.3012759983266733  0.5512945055790937  0.7688729763004289   F   F   F
  0.8012759685612991  0.0512944981605372  0.7688729763004289   F   F   F
  0.8012759685273281  0.5512945055790937  0.7688729763004289   F   F   F
  0.0787710025712300  0.1711805015919765  0.7434419989625454   F   F   F
  0.0787710025865564  0.6711804866994839  0.7434419989625454   F   F   F
  0.5787709951407791  0.1711805015919765  0.7434419989625454   F   F   F
  0.5787709951560984  0.6711804866994839  0.7434419989625454   F   F   F
  0.1711995005657982  0.4211744964317958  0.7434210181261207   F   F   F
  0.1711995005379165  0.9211745262167668  0.7434210181261207   F   F   F
  0.6711995005547209  0.4211744964317958  0.7434210181261207   F   F   F
  0.6711995005822118  0.9211745262167668  0.7434210181261207   F   F   F
  0.0512560010060099  0.1987150013639862  0.7688890099553589   F   F   F
  0.0512560010172578  0.6987149715236498  0.7688890099553589   F   F   F
  0.5512560009949325  0.1987150013639862  0.7688890099553589   F   F   F
  0.5512560010061875  0.6987149715236498  0.7688890099553589   F   F   F
  0.1987234949972319  0.4487039745014059  0.7688720226216859   F   F   F
  0.1987234950247228  0.9487040042863839  0.7688720226216859   F   F   F
  0.6987234949861616  0.4487039745014059  0.7688720226216859   F   F   F
  0.6987234950136525  0.9487040042863839  0.7688720226216859   F   F   F
  0.4212315082396927  0.3288174867596396  0.7434419989625454   F   F   F
  0.4212315082590763  0.8288174867596396  0.7434419989625454   F   F   F
  0.9212314486520796  0.3288174867596396  0.7434419989625454   F   F   F
  0.9212315082479989  0.8288174867596396  0.7434419989625454   F   F   F
  0.3288004994152729  0.0788249969468282  0.7434210181261207   F   F   F
  0.3288004994346494  0.5788249969468282  0.7434210181261207   F   F   F
  0.8288004994595681  0.0788249969468282  0.7434210181261207   F   F   F
  0.8288004994235791  0.5788249969468282  0.7434210181261207   F   F   F
  0.0000034999835279  0.2500014901345224  0.7258219718940495   F   F   F
  0.0000035000029044  0.7500014901345224  0.7258219718940495   F   F   F
  0.5000035166937522  0.2500014901345224  0.7258219718940495   F   F   F
  0.5000035166577632  0.7500014901345224  0.7258219718940495   F   F   F
  0.2500005066165230  0.0000000000000000  0.7258039712857141   F   F   F
  0.2500005066359066  0.5000000000000000  0.7258039712857141   F   F   F
  0.7500004768171777  0.0000000000000000  0.7258039712857141   F   F   F
  0.7500004768365613  0.5000000000000000  0.7258039712857141   F   F   F
  0.7426436519097250  0.4931578612679470  0.4968964363291035   T   T   T
  0.6704220425997794  0.5589637092481499  0.4976877676984925   T   T   T
  0.6457327836496919  0.4646415622351056  0.5474194820706494   T   T   T
  0.6023413733438739  0.4982300844988198  0.5241186384273580   T   T   T
  0.6684205830929240  0.5802271196194213  0.5552276126387279   T   T   T
  0.7386743949522403  0.6330097895083958  0.5425681963717955   T   T   T
  0.8058235134598395  0.4577975901877079  0.5270742927475480   T   T   T
  0.8255477568414138  0.5496639325633824  0.5353798815102617   T   T   T
  0.7752753319049236  0.6528284098548139  0.5104026237534296   T   T   T
  0.8377310917128281  0.5870128981290632  0.5001745797120146   T   T   T
  0.7086186400063923  0.6492598358436624  0.4737616263301943   T   T   T
  0.7945202372369741  0.6949849607133577  0.4757236147174482   T   T   T
  0.7164083631539764  0.3701706477008078  0.5252418290389007   T   T   T
  0.6197816845231829  0.3624555945777514  0.5230345720149020   T   T   T
  0.6699784687683372  0.4026968965554590  0.5017101988561962   T   T   T
  0.6505070959148617  0.6702367295466968  0.5134442807099390   T   T   T
  0.5793158665553408  0.6144959807373287  0.5252969126012691   T   T   T
  0.6166800668871152  0.6909053258058134  0.5391891077108060   T   T   T
  0.7496235641938790  0.4292765529976961  0.5629240915966517   T   T   T
  0.8395244874891388  0.4674656158839819  0.5656314588671560   T   T   T
  0.7617337723936428  0.5232769414386779  0.5711739580659505   T   T   T
  0.7889332199759619  0.6240765881419289  0.4426363149545863   T   T   T
  0.8600346684024176  0.5899660398573289  0.4592652150872466   T   T   T
  0.6575239786503385  0.5533325148837300  0.4474312500055589   T   T   T
  0.8698569515906871  0.4620136881699947  0.4642776450834346   T   T   T
  0.6031473290180079  0.4274418464512924  0.4473816931550838   T   T   T
  0.8155351694706333  0.3357240584628957  0.4642860637937053   T   T   T
  0.6816758381576973  0.3178190341245976  0.4560717380119375   T   T   T
 -0.0227830813521495  0.2252040710343399  0.5610881247170899   T   T   T
 -0.0151289999448440  0.7266106322255611  0.5610016688111734   T   T   T
  0.4790965796399791  0.2384590713916703  0.5602054019585820   T   T   T
  0.4532292054315374  0.7573446830687214  0.5580045070335458   T   T   T
  0.2678544341814251  0.4806218132346903  0.5617364209410263   T   T   T
  0.2481406985043745  0.0058093559815042  0.5569872474199133   T   T   T
  0.7608401664149065 -0.0046260614237379  0.5565710886242761   T   T   T
 -0.0010584631711680  0.2496838934049262  0.6472745448519572   T   T   T
 -0.0043893578099080  0.7497774645119645  0.6476252181351012   T   T   T
  0.5034152222478483  0.2581606993540939  0.6479104782893365   T   T   T
  0.5045386382088968  0.7586542014324459  0.6476482107931565   T   T   T
  0.2481911310480029  0.5020189673190031  0.6478571930083236   T   T   T
  0.2517862448109077  0.0024244528407021  0.6489278357101700   T   T   T
  0.7484394062500759  0.5084412722213483  0.6471760300826404   T   T   T
  0.7502020408442639  0.0049006000437103  0.6483937372103208   T   T   T
  0.4999889731548066  0.2499949931900858  0.7432770133073987   F   F   F
  0.4999890327507259  0.7499949931900858  0.7432770133073987   F   F   F
  0.9999889731437364  0.2499949931900858  0.7432770133073987   F   F   F
  0.9999890327396557  0.7499949931900858  0.7432770133073987   F   F   F
  0.2500005066120252  0.0000010000111388  0.7432559728590533   F   F   F
  0.2500005066350184  0.5000010132981174  0.7432559728590533   F   F   F
  0.7500004768126800  0.0000010000111388  0.7432559728590533   F   F   F
  0.7500004768356803  0.5000010132981174  0.7432559728590533   F   F   F
  0.7254168270627106  0.5456642197081425  0.5040540312835302   T   T   T
  0.6530345178743364  0.4720829694200240  0.5301183918642506   T   T   T
  0.6889477293379292  0.5994025429578980  0.5396338831702776   T   T   T
  0.7865840796088392  0.5034857234046443  0.5372722383732340   T   T   T
  0.7804862234396917  0.6074604018690604  0.4987770403101766   T   T   T
  0.7683804417436823  0.6399358395410714  0.4762527089686076   T   T   T
  0.6669591973807638  0.3985200162704165  0.5191916292061447   T   T   T
  0.6305946098714313  0.6452488374604661  0.5283596329131839   T   T   T
  0.7826248220761509  0.4796527831609249  0.5605063416194899   T   T   T
  0.7994691210308210  0.5936477544899742  0.4576059155962153   T   T   T
  0.7675382453427282  0.5166960153965499  0.4560773433755695   T   T   T
  0.6924392924288333  0.5057247316675053  0.4511619063237091   T   T   T
  0.8111962413586505  0.4544133649795933  0.4605961015097739   T   T   T
  0.6616527438944434  0.4348291013742137  0.4511473726401919   T   T   T
  0.7805896191847089  0.3833359130890928  0.4605833798951438   T   T   T
  0.7055984538304478  0.3732751003740806  0.4559576899166699   T   T   T
  0.0469226208691053  0.2065464406784292  0.5637331515176174   T   T   T
  0.0465694086310725  0.6886930224475031  0.5592359572911406   T   T   T
  0.5477954190218262  0.2152773355159310  0.5615801547098980   T   T   T
  0.5077654008017372  0.7210372206558405  0.5669829601757054   T   T   T
  0.4565321723619924  0.3067603596917096  0.5632862491846355   T   T   T
  0.4481260411253113  0.8298422517996286  0.5568992676492003   T   T   T
  0.9497470494642063  0.2923495303168415  0.5621560464223784   T   T   T
  0.9796490580829281  0.7977041766922562  0.5651467014956756   T   T   T
  0.2072318273179837  0.4409935705221968  0.5599539867491971   T   T   T
  0.2247415871258490  0.9452252418872717  0.5663126248896779   T   T   T
  0.6940271740125197  0.0164509982679709  0.5622292510137614   T   T   T
  0.2737216147064911  0.0640659279737993  0.5671074320191433   T   T   T
  0.2717406284401555  0.5491706592479971  0.5686419084512300   T   T   T
  0.8218313979588243  0.0298247786251474  0.5621048406574211   T   T   T
  0.0459589313359799  0.2040144874823718  0.6563358900792099   T   T   T
  0.0422123856669872  0.7066147552039381  0.6578520197829480   T   T   T
  0.5395767375470479  0.2087569110986102  0.6592483287764276   T   T   T
  0.5431309176945154  0.7090700302467144  0.6582179490398850   T   T   T
  0.2006583683604066  0.4551726307208446  0.6561599647195736   T   T   T
  0.2075517587371206  0.9573695868309915  0.6593307781729481   T   T   T
  0.7094769581363185  0.4591124688397105  0.6577599196530424   T   T   T
  0.7093890464504942  0.9578446371045978  0.6592271311754925   T   T   T
  0.4494652041154513  0.3002985084694041  0.6549091232625907   T   T   T
  0.4472252805720355  0.7951505841889411  0.6550880104965653   T   T   T
  0.9523906339108452  0.2937364956014536  0.6571918490885109   T   T   T
  0.9520289339613743  0.7994117754264880  0.6563575866958896   T   T   T
  0.2998871353940769  0.0481940562718184  0.6574439831441676   T   T   T
  0.2927723739616271  0.5457967045575131  0.6586057960999494   T   T   T
  0.7975387185251808  0.0522343003165852  0.6565379472826767   T   T   T
  0.8008837468639344  0.5502362120777887  0.6552385995392059   T   T   T
  0.0458624996011352  0.2041195035215679  0.7527260184237576   F   F   F
  0.0458624996205117  0.7041195035215679  0.7527260184237576   F   F   F
  0.5458624958803711  0.2041195035215679  0.7527260184237576   F   F   F
  0.5458624958997476  0.7041195035215679  0.7527260184237576   F   F   F
  0.2041189968698021  0.4541010260417480  0.7527049779914137   F   F   F
  0.2041189968729569  0.9541009664717990  0.7527049779914137   F   F   F
  0.7041189670704568  0.4541010260417480  0.7527049779914137   F   F   F
  0.7041189670736117  0.9541009664717990  0.7527049779914137   F   F   F
  0.4541400075181912  0.2958885133423621  0.7527269721025078   F   F   F
  0.4541400074903166  0.7958885431273401  0.7527269721025078   F   F   F
  0.9541400075071209  0.2958885133423621  0.7527269721025078   F   F   F
  0.9541400671111475  0.7958885431273401  0.7527269721025078   F   F   F
  0.2958824932447897  0.0459005012963090  0.7527049779914137   F   F   F
  0.2958824932702626  0.5459005236627235  0.7527049779914137   F   F   F
  0.7958824634454515  0.0459005012963090  0.7527049779914137   F   F   F
  0.7958824634709174  0.5459005236627235  0.7527049779914137   F   F   F
  0.7137964102959636  0.5301417126744384  0.5276454369696519   T   T   T
  0.4943393409925025  0.0239083886304139  0.5527365349534143   T   T   T
  0.4661275872354840  0.5292757043360348  0.5538407188747952   T   T   T
  0.0166468912680313  0.0071731077333800  0.5538312368609999   T   T   T
  0.0086098355524052  0.4928697998807405  0.5529963836701204   T   T   T
  0.2650505400576636  0.2542720789982296  0.5524856069333579   T   T   T
  0.2404112915656146  0.7554632826882259  0.5529540974172579   T   T   T
  0.7611344730454527  0.2352370191558638  0.5536417793712779   T   T   T
  0.7837727852626603  0.7836359338595144  0.5517726382638219   T   T   T
  0.0024058885324489  0.0022252184899747  0.6551300290463974   T   T   T
  0.0034071434325094  0.5023858088679604  0.6545639858116133   T   T   T
  0.5063253807882253 -0.0031207659769520  0.6542833768751642   T   T   T
  0.5078676016633364  0.4991520185868860  0.6541343792907583   T   T   T
  0.2468736811424888  0.2555227646565412  0.6547841371239850   T   T   T
  0.2450834492042995  0.7533782669593375  0.6549335030936027   T   T   T
  0.7415599735713294  0.2555586720995572  0.6545223941419880   T   T   T
  0.7425877021421624  0.7537070752434019  0.6531710273129865   T   T   T
  0.1424430208810490  0.1147977252463723  0.6091542302685189   T   T   T
  0.1373048885409390  0.6146388783190476  0.6072788693210260   T   T   T
  0.6342165458050342  0.1216703667302438  0.6082012143217796   T   T   T
  0.6364512729647092  0.6219617155889963  0.6020976580337660   T   T   T
  0.3617263101873390  0.3952691866406661  0.6077723778720134   T   T   T
  0.3589484185672663  0.8952059860578484  0.6076101462853016   T   T   T
  0.8653138317397527  0.3877012965035112  0.6105463389359661   T   T   T
  0.8648126350617080  0.8929753143066617  0.6096138105449317   T   T   T
  0.1051323556932084  0.3582136050046127  0.6042486186182593   T   T   T
  0.1121803942842679  0.8645191103289057  0.6084417814983245   T   T   T
  0.6144165885108209  0.3732905811266063  0.5968492067865436   T   T   T
  0.6059783404092282  0.8653004472189046  0.5983870216938209   T   T   T
  0.3878247707430583  0.1451759085601400  0.6099022921073378   T   T   T
  0.3853932233165172  0.6418511441694001  0.6122168397129266   T   T   T
  0.8842177810842405  0.1383960197670427  0.6080379557649681   T   T   T
  0.8813125803071267  0.6367747605562391  0.6053907147027088   T   T   T
  0.0000000000000000  0.0000000000000000  0.7549279928135135   F   F   F
  0.0000000000193765  0.5000000000000000  0.7549279928135135   F   F   F
  0.4999999999889297  0.0000000000000000  0.7549279928135135   F   F   F
  0.5000000000083062  0.5000000000000000  0.7549279928135135   F   F   F
  0.2500005066262148  0.2500000000000000  0.7549390196750210   F   F   F
  0.2500005066455913  0.7500000000000000  0.7549390196750210   F   F   F
  0.7500004768268695  0.2500000000000000  0.7549390196750210   F   F   F
  0.7500004768462460  0.7500000000000000  0.7549390196750210   F   F   F
  0.1357904970913637  0.1142100020970958  0.7047830224073479   F   F   F
  0.1357904970574069  0.6142100095710177  0.7047830224073479   F   F   F
  0.6357904672366530  0.1142100020970958  0.7047830224073479   F   F   F
  0.6357904672580617  0.6142100095710177  0.7047830224073479   F   F   F
  0.3642095029149104  0.3857899904289823  0.7047830224073479   F   F   F
  0.3642095029342869  0.8857899904289823  0.7047830224073479   F   F   F
  0.8642095327474735  0.3857899904289823  0.7047830224073479   F   F   F
  0.8642095327114845  0.8857899904289823  0.7047830224073479   F   F   F
  0.1142179891403217  0.3642190098927216  0.7047809958420075   F   F   F
  0.1142179891596982  0.8642190098927216  0.7047809958420075   F   F   F
  0.6142179966039976  0.3642190098927216  0.7047809958420075   F   F   F
  0.6142179965680086  0.8642190098927216  0.7047809958420075   F   F   F
  0.3857820034204806  0.1357814967840127  0.7047820091166770   F   F   F
  0.3857820033926060  0.6357815265689908  0.7047820091166770   F   F   F
  0.8857820034094104  0.1357814967840127  0.7047820091166770   F   F   F
  0.8857820033815287  0.6357815265689908  0.7047820091166770   F   F   F
  0.1346669942216394  0.1153320073988340  0.8012560009966521   F   F   F
  0.1346669941856504  0.6153320073988340  0.8012560009966521   F   F   F
  0.6346669793164352  0.1153320073988340  0.8012560009966521   F   F   F
  0.6346669793358117  0.6153320073988340  0.8012560009966521   F   F   F
  0.3653329908925258  0.3846679926011660  0.8012560009966521   F   F   F
  0.3653329908565368  0.8846679926011589  0.8012560009966521   F   F   F
  0.8653329610931877  0.3846679926011660  0.8012560009966521   F   F   F
  0.8653329610571987  0.8846679926011589  0.8012560009966521   F   F   F
  0.1153285056432978  0.3653370142087482  0.8012650012928191   F   F   F
  0.1153285056073088  0.8653370142087482  0.8012650012928191   F   F   F
  0.6153284907380936  0.3653370142087482  0.8012650012928191   F   F   F
  0.6153284907574701  0.8653370142087482  0.8012650012928191   F   F   F
  0.3846715092631925  0.1346630006837373  0.8012650012928191   F   F   F
  0.3846715092785189  0.6346629857912518  0.8012650012928191   F   F   F
  0.8846715092521222  0.1346630006837373  0.8012650012928191   F   F   F
  0.8846715092674415  0.6346629857912518  0.8012650012928191   F   F   F
  0.0038787282138185  0.0045904098483148  0.6047426710888707   T   T   T
 -0.0036224749450637  0.5030346290929731  0.6041879005336942   T   T   T
  0.4976083886506070  0.0093639503834721  0.6039607957359278   T   T   T
  0.5002927650483240  0.5115430773519113  0.6040743618731816   T   T   T
  0.2517344379054269  0.2587730074869461  0.6051051221837763   T   T   T
  0.2507705252541526  0.7531211804422794  0.6048875520449425   T   T   T
  0.7508519085062346  0.2573117559360550  0.6037370425640997   T   T   T
  0.7532951376031566  0.7607437142264705  0.6016288525026104   T   T   T
  0.0000005000032601  0.0000004999778866  0.7048289775829417   F   F   F
  0.0000005000163412  0.5000004768364050  0.7048289775829417   F   F   F
  0.5000004768481432  0.0000004999778866  0.7048289775829417   F   F   F
  0.5000004768612172  0.5000004768364050  0.7048289775829417   F   F   F
  0.2499999999728644  0.2499994784861386  0.7048249840801901   F   F   F
  0.2500000000044054  0.7499995231635950  0.7048249840801901   F   F   F
  0.7500000000171596  0.2499994784861386  0.7048249840801901   F   F   F
  0.7499999999933351  0.7499995231635950  0.7048249840801901   F   F   F
  0.0000000000000000  0.0000000000000000  0.8073179721848831   F   F   F
  0.0000000000193765  0.5000000000000000  0.8073179721848831   F   F   F
  0.4999999999889297  0.0000000000000000  0.8073179721848831   F   F   F
  0.5000000000083062  0.5000000000000000  0.8073179721848831   F   F   F
  0.2500000000041496  0.2500000000000000  0.8073179721848831   F   F   F
  0.2500000000235332  0.7500000000000000  0.8073179721848831   F   F   F
  0.7499999999930793  0.2500000000000000  0.8073179721848831   F   F   F
  0.7500000000124558  0.7500000000000000  0.8073179721848831   F   F   F
 
  0.00000000E+00  0.00000000E+00  0.00000000E+00
  0.00000000E+00  0.00000000E+00  0.00000000E+00
  0.00000000E+00  0.00000000E+00  0.00000000E+00
  0.00000000E+00  0.00000000E+00  0.00000000E+00
  0.00000000E+00  0.00000000E+00  0.00000000E+00
  0.00000000E+00  0.00000000E+00  0.00000000E+00
  0.00000000E+00  0.00000000E+00  0.00000000E+00
  0.00000000E+00  0.00000000E+00  0.00000000E+00
  0.00000000E+00  0.00000000E+00  0.00000000E+00
  0.00000000E+00  0.00000000E+00  0.00000000E+00
  0.00000000E+00  0.00000000E+00  0.00000000E+00
  0.00000000E+00  0.00000000E+00  0.00000000E+00
  0.00000000E+00  0.00000000E+00  0.00000000E+00
  0.00000000E+00  0.00000000E+00  0.00000000E+00
  0.00000000E+00  0.00000000E+00  0.00000000E+00
  0.00000000E+00  0.00000000E+00  0.00000000E+00
  0.00000000E+00  0.00000000E+00  0.00000000E+00
  0.00000000E+00  0.00000000E+00  0.00000000E+00
  0.00000000E+00  0.00000000E+00  0.00000000E+00
  0.00000000E+00  0.00000000E+00  0.00000000E+00
  0.00000000E+00  0.00000000E+00  0.00000000E+00
  0.00000000E+00  0.00000000E+00  0.00000000E+00
  0.00000000E+00  0.00000000E+00  0.00000000E+00
  0.00000000E+00  0.00000000E+00  0.00000000E+00
  0.00000000E+00  0.00000000E+00  0.00000000E+00
  0.00000000E+00  0.00000000E+00  0.00000000E+00
  0.00000000E+00  0.00000000E+00  0.00000000E+00
  0.00000000E+00  0.00000000E+00  0.00000000E+00
  0.00000000E+00  0.00000000E+00  0.00000000E+00
  0.00000000E+00  0.00000000E+00  0.00000000E+00
  0.00000000E+00  0.00000000E+00  0.00000000E+00
  0.00000000E+00  0.00000000E+00  0.00000000E+00
  0.00000000E+00  0.00000000E+00  0.00000000E+00
  0.00000000E+00  0.00000000E+00  0.00000000E+00
  0.00000000E+00  0.00000000E+00  0.00000000E+00
  0.00000000E+00  0.00000000E+00  0.00000000E+00
  0.00000000E+00  0.00000000E+00  0.00000000E+00
  0.00000000E+00  0.00000000E+00  0.00000000E+00
  0.00000000E+00  0.00000000E+00  0.00000000E+00
  0.00000000E+00  0.00000000E+00  0.00000000E+00
  0.00000000E+00  0.00000000E+00  0.00000000E+00
  0.00000000E+00  0.00000000E+00  0.00000000E+00
  0.00000000E+00  0.00000000E+00  0.00000000E+00
  0.00000000E+00  0.00000000E+00  0.00000000E+00
  0.00000000E+00  0.00000000E+00  0.00000000E+00
  0.00000000E+00  0.00000000E+00  0.00000000E+00
  0.00000000E+00  0.00000000E+00  0.00000000E+00
  0.00000000E+00  0.00000000E+00  0.00000000E+00
  0.00000000E+00  0.00000000E+00  0.00000000E+00
  0.00000000E+00  0.00000000E+00  0.00000000E+00
  0.00000000E+00  0.00000000E+00  0.00000000E+00
  0.00000000E+00  0.00000000E+00  0.00000000E+00
  0.00000000E+00  0.00000000E+00  0.00000000E+00
  0.00000000E+00  0.00000000E+00  0.00000000E+00
  0.00000000E+00  0.00000000E+00  0.00000000E+00
  0.00000000E+00  0.00000000E+00  0.00000000E+00
  0.00000000E+00  0.00000000E+00  0.00000000E+00
  0.00000000E+00  0.00000000E+00  0.00000000E+00
  0.00000000E+00  0.00000000E+00  0.00000000E+00
  0.00000000E+00  0.00000000E+00  0.00000000E+00
  0.00000000E+00  0.00000000E+00  0.00000000E+00
  0.00000000E+00  0.00000000E+00  0.00000000E+00
  0.00000000E+00  0.00000000E+00  0.00000000E+00
  0.00000000E+00  0.00000000E+00  0.00000000E+00
  0.00000000E+00  0.00000000E+00  0.00000000E+00
  0.00000000E+00  0.00000000E+00  0.00000000E+00
  0.00000000E+00  0.00000000E+00  0.00000000E+00
  0.00000000E+00  0.00000000E+00  0.00000000E+00
  0.00000000E+00  0.00000000E+00  0.00000000E+00
  0.00000000E+00  0.00000000E+00  0.00000000E+00
  0.00000000E+00  0.00000000E+00  0.00000000E+00
  0.00000000E+00  0.00000000E+00  0.00000000E+00
  0.00000000E+00  0.00000000E+00  0.00000000E+00
  0.00000000E+00  0.00000000E+00  0.00000000E+00
  0.00000000E+00  0.00000000E+00  0.00000000E+00
  0.00000000E+00  0.00000000E+00  0.00000000E+00
  0.00000000E+00  0.00000000E+00  0.00000000E+00
  0.00000000E+00  0.00000000E+00  0.00000000E+00
  0.00000000E+00  0.00000000E+00  0.00000000E+00
  0.00000000E+00  0.00000000E+00  0.00000000E+00
  0.00000000E+00  0.00000000E+00  0.00000000E+00
  0.00000000E+00  0.00000000E+00  0.00000000E+00
  0.00000000E+00  0.00000000E+00  0.00000000E+00
  0.00000000E+00  0.00000000E+00  0.00000000E+00
  0.00000000E+00  0.00000000E+00  0.00000000E+00
  0.00000000E+00  0.00000000E+00  0.00000000E+00
  0.00000000E+00  0.00000000E+00  0.00000000E+00
  0.00000000E+00  0.00000000E+00  0.00000000E+00
  0.00000000E+00  0.00000000E+00  0.00000000E+00
  0.00000000E+00  0.00000000E+00  0.00000000E+00
  0.00000000E+00  0.00000000E+00  0.00000000E+00
  0.00000000E+00  0.00000000E+00  0.00000000E+00
  0.00000000E+00  0.00000000E+00  0.00000000E+00
  0.00000000E+00  0.00000000E+00  0.00000000E+00
  0.00000000E+00  0.00000000E+00  0.00000000E+00
  0.00000000E+00  0.00000000E+00  0.00000000E+00
  0.00000000E+00  0.00000000E+00  0.00000000E+00
  0.00000000E+00  0.00000000E+00  0.00000000E+00
  0.00000000E+00  0.00000000E+00  0.00000000E+00
  0.00000000E+00  0.00000000E+00  0.00000000E+00
  0.00000000E+00  0.00000000E+00  0.00000000E+00
  0.00000000E+00  0.00000000E+00  0.00000000E+00
  0.00000000E+00  0.00000000E+00  0.00000000E+00
  0.00000000E+00  0.00000000E+00  0.00000000E+00
  0.00000000E+00  0.00000000E+00  0.00000000E+00
  0.00000000E+00  0.00000000E+00  0.00000000E+00
  0.00000000E+00  0.00000000E+00  0.00000000E+00
  0.00000000E+00  0.00000000E+00  0.00000000E+00
  0.00000000E+00  0.00000000E+00  0.00000000E+00
  0.00000000E+00  0.00000000E+00  0.00000000E+00
  0.00000000E+00  0.00000000E+00  0.00000000E+00
  0.00000000E+00  0.00000000E+00  0.00000000E+00
  0.00000000E+00  0.00000000E+00  0.00000000E+00
  0.00000000E+00  0.00000000E+00  0.00000000E+00
  0.00000000E+00  0.00000000E+00  0.00000000E+00
  0.00000000E+00  0.00000000E+00  0.00000000E+00
  0.00000000E+00  0.00000000E+00  0.00000000E+00
  0.00000000E+00  0.00000000E+00  0.00000000E+00
  0.00000000E+00  0.00000000E+00  0.00000000E+00
  0.00000000E+00  0.00000000E+00  0.00000000E+00