PerovskiteSurface_12951678_1            
    1.000000000000000     
    18.0608005523999999    0.0000000000000000    0.0000000000000000
    -0.0049186487000000   18.0627987840000017    0.0000000000000000
     0.0000000000000000    0.0000000000000000   62.4874992371000033
   H    C    N    I    Pb
   143    39    47    72    24
Selective dynamics
Direct
  0.4897572314675258  0.3412949646896812  0.5653257387163719   T   T   T
  0.5517226692522369  0.8225974074610429  0.5726978369667506   T   T   T
  0.9380438367020925  0.3162639076446135  0.5687418694637886   T   T   T
  0.9319837084813267  0.7267477877572278  0.5750657788611530   T   T   T
  0.3369566335487135  0.0112776859794693  0.5721584641937774   T   T   T
  0.3408281638026256  0.5416304253580173  0.5626208897390973   T   T   T
  0.8275029154252306  0.0694862026957855  0.5735283944938411   T   T   T
  0.1137450725398678  0.2263016858156729  0.5600801168694650   T   T   T
  0.1228894126571751  0.7333724448022212  0.5566142439779800   T   T   T
  0.5582691930803757  0.1504180673926838  0.5603008726749067   T   T   T
  0.4772537397830273  0.6432729565701301  0.5573473405394790   T   T   T
  0.3089966578015209  0.1015045916167821  0.5650792686249008   T   T   T
  0.2852684680359652  0.6192243291941852  0.5566085245233332   T   T   T
  0.8725819565753669  0.0104686099903730  0.5558034136754627   T   T   T
  0.0726496931694429  0.3075824771674177  0.5690900007812668   T   T   T
  0.0624016578490298  0.6796502519183517  0.5717164179513244   T   T   T
  0.5933380159325451  0.2398624705330645  0.5642251962329767   T   T   T
  0.5447696622557443  0.6842428911853212  0.5730895395319840   T   T   T
  0.2688319725146522  0.4248732453122763  0.5719885427606368   T   T   T
  0.2371794658298376  0.9137580309034625  0.5696073003097143   T   T   T
  0.6892262306808365  0.0611304887995095  0.5747550059127691   T   T   T
  0.4004532693738693  0.3058431670649250  0.5616185201929085   T   T   T
  0.4871890591784065  0.8694456434295766  0.5571792526673034   T   T   T
  0.8876383997301095  0.2418232134717590  0.5586725894250301   T   T   T
  0.9136213360419537  0.8121584455605433  0.5632551926746214   T   T   T
  0.1733958211182019  0.4298561593442463  0.5665595804940396   T   T   T
  0.1495140225609788  0.9468793875286839  0.5619542016863442   T   T   T
  0.6473337353132530 -0.0007864371439913  0.5572621488497385   T   T   T
  0.4378034210017787  0.1858464413395153  0.5581017143008792   T   T   T
  0.4301087275815874  0.7587666201113490  0.5456863505904310   T   T   T
 -0.0028877635715198  0.1722603359140309  0.5522044113169905   T   T   T
  0.0336486541559135  0.8241103258660337  0.5496425308729134   T   T   T
  0.1759267118933946  0.5505373734406284  0.5567365806724957   T   T   T
  0.1893058592547356  0.0667855218069249  0.5577525734082717   T   T   T
  0.7612631875421663 -0.0412086109353933  0.5432929932332244   T   T   T
  0.4391482724913167  0.3000923923260302  0.6724211638339238   T   T   T
  0.4376146792917878  0.7862952547908153  0.6725263703505669   T   T   T
  0.9605479002473269  0.2948089074420931  0.6754400055708154   T   T   T
  0.9541822031590699  0.8049137470732322  0.6730278606314773   T   T   T
  0.3047567732289422  0.0479196067067651  0.6729278492097671   T   T   T
  0.3015791743718989  0.5492649461191266  0.6735036968174194   T   T   T
  0.7992925983330890  0.0485740037359042  0.6739843367546365   T   T   T
  0.8020513913188133  0.5409730477715321  0.6711360870253421   T   T   T
  0.0775692039383484  0.1673928832176711  0.6445838873599777   T   T   T
  0.0746053013627647  0.6676151032381196  0.6471594196527062   T   T   T
  0.5799878686308445  0.1755720551679085  0.6500489076065127   T   T   T
  0.5879842816004792  0.6809742970309186  0.6475471207085478   T   T   T
  0.1685342686934461  0.4236100245642076  0.6477882565484282   T   T   T
  0.1714025026228511  0.9228429215648039  0.6471664735186122   T   T   T
  0.6700491839622895  0.4210813126271036  0.6430141286108919   T   T   T
  0.6748521424256447  0.9160323600203649  0.6474776670513589   T   T   T
  0.0600836101518063  0.1919674943553157  0.6710749205239880   T   T   T
  0.0534883776306193  0.7005605645164987  0.6725783908237679   T   T   T
  0.5389127499000886  0.1967454131749770  0.6744431282519364   T   T   T
  0.5467536118548252  0.6931314263022531  0.6723566119355485   T   T   T
  0.1983281661384586  0.4485760407238273  0.6732980773727234   T   T   T
  0.2016123865230837  0.9475273470615122  0.6726200631522501   T   T   T
  0.7011788931840782  0.4394719465937949  0.6688047046175702   T   T   T
  0.6990272427907251  0.9442151504908889  0.6731517300766976   T   T   T
  0.4246774024998459  0.3351419494942285  0.6468706779665186   T   T   T
  0.4165004486969551  0.8237245299890414  0.6477210218190631   T   T   T
  0.9226736107009856  0.3257928450958487  0.6515130681192226   T   T   T
  0.9214275144986951  0.8293068407592008  0.6477462446617932   T   T   T
  0.3311664027331184  0.0784660637906434  0.6476637994623947   T   T   T
  0.3279186354589460  0.5793649162437912  0.6481379389067708   T   T   T
  0.8288004463476790  0.0768353083698213  0.6487853220011821   T   T   T
  0.8258191685174436  0.5804122798707141  0.6468267789137238   T   T   T
 -0.0073942544575870  0.2486138706927926  0.6303920829912237   T   T   T
  0.9935519212722369  0.7453657947960901  0.6297766558916073   T   T   T
  0.5123451966933165  0.2607447853114196  0.6308904337587389   T   T   T
  0.5093030818533458  0.7607920336013912  0.6299319774081783   T   T   T
  0.2495988186738003  0.0028808081392595  0.6296225400693898   T   T   T
  0.2465181895513484  0.5036084597667431  0.6302617830367377   T   T   T
  0.7537383206021576 -0.0036062303123395  0.6304362011048558   T   T   T
  0.7457347089654844  0.5079569688147371  0.6270594271824306   T   T   T
  0.4487450123026875  0.3012839853932547  0.7688890099553589   F   F   F
  0.4487450122585699  0.8012839555529183  0.7688890099553589   F   F   F
  0.9487449526597018  0.3012839853932547  0.7688890099553589   F   F   F
  0.9487450123028651  0.8012839555529183  0.7688890099553589   F   F   F
  0.3012759983606372  0.0512944981605372  0.7688729763004289   F   F   F
  0.3012759983266733  0.5512945055790937  0.7688729763004289   F   F   F
  0.8012759685612991  0.0512944981605372  0.7688729763004289   F   F   F
  0.8012759685273281  0.5512945055790937  0.7688729763004289   F   F   F
  0.0787710025712300  0.1711805015919765  0.7434419989625454   F   F   F
  0.0787710025865564  0.6711804866994839  0.7434419989625454   F   F   F
  0.5787709951407791  0.1711805015919765  0.7434419989625454   F   F   F
  0.5787709951560984  0.6711804866994839  0.7434419989625454   F   F   F
  0.1711995005657982  0.4211744964317958  0.7434210181261207   F   F   F
  0.1711995005379165  0.9211745262167668  0.7434210181261207   F   F   F
  0.6711995005547209  0.4211744964317958  0.7434210181261207   F   F   F
  0.6711995005822118  0.9211745262167668  0.7434210181261207   F   F   F
  0.0512560010060099  0.1987150013639862  0.7688890099553589   F   F   F
  0.0512560010172578  0.6987149715236498  0.7688890099553589   F   F   F
  0.5512560009949325  0.1987150013639862  0.7688890099553589   F   F   F
  0.5512560010061875  0.6987149715236498  0.7688890099553589   F   F   F
  0.1987234949972319  0.4487039745014059  0.7688720226216859   F   F   F
  0.1987234950247228  0.9487040042863839  0.7688720226216859   F   F   F
  0.6987234949861616  0.4487039745014059  0.7688720226216859   F   F   F
  0.6987234950136525  0.9487040042863839  0.7688720226216859   F   F   F
  0.4212315082396927  0.3288174867596396  0.7434419989625454   F   F   F
  0.4212315082590763  0.8288174867596396  0.7434419989625454   F   F   F
  0.9212314486520796  0.3288174867596396  0.7434419989625454   F   F   F
  0.9212315082479989  0.8288174867596396  0.7434419989625454   F   F   F
  0.3288004994152729  0.0788249969468282  0.7434210181261207   F   F   F
  0.3288004994346494  0.5788249969468282  0.7434210181261207   F   F   F
  0.8288004994595681  0.0788249969468282  0.7434210181261207   F   F   F
  0.8288004994235791  0.5788249969468282  0.7434210181261207   F   F   F
  0.0000034999835279  0.2500014901345224  0.7258219718940495   F   F   F
  0.0000035000029044  0.7500014901345224  0.7258219718940495   F   F   F
  0.5000035166937522  0.2500014901345224  0.7258219718940495   F   F   F
  0.5000035166577632  0.7500014901345224  0.7258219718940495   F   F   F
  0.2500005066165230  0.0000000000000000  0.7258039712857141   F   F   F
  0.2500005066359066  0.5000000000000000  0.7258039712857141   F   F   F
  0.7500004768171777  0.0000000000000000  0.7258039712857141   F   F   F
  0.7500004768365613  0.5000000000000000  0.7258039712857141   F   F   F
  0.7067004832405027  0.5356186217129718  0.5021689251373110   T   T   T
  0.7813971633528168  0.5984369157649664  0.4999662385488728   T   T   T
  0.7489978435002548  0.6045482169037877  0.5558981759752660   T   T   T
  0.7608143396494922  0.6548712209525570  0.5319961476947601   T   T   T
  0.8584953947316122  0.5468539185442204  0.5528237040984160   T   T   T
  0.8842943326688505  0.4942569371539615  0.5302357833121832   T   T   T
  0.6902595001074887  0.4609304781329409  0.5303427748096796   T   T   T
  0.7808604595347080  0.4230297183564500  0.5307762385076172   T   T   T
  0.8691455319560009  0.4908923073499158  0.4952507159459282   T   T   T
  0.7938212578212062  0.4286601488991502  0.4964933665510735   T   T   T
  0.7948555354168717  0.5552859723380451  0.4639562384228970   T   T   T
  0.8450507519152758  0.4735070406404548  0.4591320522798553   T   T   T
  0.6235418205705007  0.5606623689851425  0.5434660164587742   T   T   T
  0.6327916081120134  0.6581345254908788  0.5424478636226363   T   T   T
  0.6363121028839444  0.6066209229716506  0.5184678221860086   T   T   T
  0.9001879323252745  0.6137857253458091  0.5089352404009077   T   T   T
  0.8754004592920219  0.6654600342251139  0.5323073099485305   T   T   T
  0.9555635840587907  0.6084850024487488  0.5322470880401236   T   T   T
  0.7040217197079179  0.4998025025941649  0.5689953926418309   T   T   T
  0.7218288486732619  0.4044637820202638  0.5652704649105876   T   T   T
  0.7965991072460203  0.4653940448364842  0.5692645197938611   T   T   T
  0.7249893252493101  0.4684217313543742  0.4413016461677712   T   T   T
  0.7335583016682647  0.3970293745144309  0.4604472244166978   T   T   T
  0.6526835271450926  0.5877903576441263  0.4533183093772376   T   T   T
  0.6411121584943307  0.3798609389043269  0.4868772017089336   T   T   T
  0.5397837145593858  0.6306266609709384  0.4722209859391066   T   T   T
  0.5283824455079227  0.4232625167194649  0.5060585903653313   T   T   T
  0.4781637237106421  0.5485845826673029  0.4991062852645697   T   T   T
  0.0004646946219623  0.2286503844039158  0.5585539362757304   T   T   T
  0.0185015666811056  0.7743147893407776  0.5586134426019058   T   T   T
  0.4797801947191391  0.2284564101181460  0.5607107291634994   T   T   T
  0.4786631315049648  0.7565484663903677  0.5561238014225250   T   T   T
  0.2284357576989271  0.5238721625379072  0.5607235486018475   T   T   T
  0.2290503071970446  0.0245709597462538  0.5627296910914542   T   T   T
  0.7600521821394037  0.0029031439842752  0.5552356255172094   T   T   T
 -0.0000056183793297  0.2465662344398135  0.6477133146929194   T   T   T
 -0.0021924062106413  0.7483501611215695  0.6471858531545276   T   T   T
  0.5025370856328977  0.2554197011957487  0.6480631627565079   T   T   T
  0.5019871406151588  0.7519599397562629  0.6470748820926275   T   T   T
  0.2479697069878631  0.5017099536731227  0.6477076653736715   T   T   T
  0.2511234991703110  0.0007686181720348  0.6470713826670030   T   T   T
  0.7482301809336452  0.5005752834870568  0.6443930220080624   T   T   T
  0.7518274463920330 -0.0035866465010792  0.6478886563061886   T   T   T
  0.4999889731548066  0.2499949931900858  0.7432770133073987   F   F   F
  0.4999890327507259  0.7499949931900858  0.7432770133073987   F   F   F
  0.9999889731437364  0.2499949931900858  0.7432770133073987   F   F   F
  0.9999890327396557  0.7499949931900858  0.7432770133073987   F   F   F
  0.2500005066120252  0.0000010000111388  0.7432559728590533   F   F   F
  0.2500005066350184  0.5000010132981174  0.7432559728590533   F   F   F
  0.7500004768126800  0.0000010000111388  0.7432559728590533   F   F   F
  0.7500004768356803  0.5000010132981174  0.7432559728590533   F   F   F
  0.7661684726943752  0.5421743724332259  0.5049474889822043   T   T   T
  0.7354823084563211  0.6050563551560247  0.5387856237053958   T   T   T
  0.8575199627252941  0.5457727069495693  0.5352899742705793   T   T   T
  0.7455638475118920  0.4666224778928719  0.5374615175844073   T   T   T
  0.8095964750308774  0.4853441336989247  0.4919279403113318   T   T   T
  0.7968202760526747  0.4957215269583861  0.4677429591891600   T   T   T
  0.6525238768237874  0.6060939044964879  0.5353921533169176   T   T   T
  0.8981358796770014  0.6127617394862012  0.5265200373783439   T   T   T
  0.7422531270528946  0.4602437891633686  0.5615783154291253   T   T   T
  0.7272426972166194  0.4573209163918622  0.4586391665983163   T   T   T
  0.6553604092398492  0.4809899092566242  0.4689374978763020   T   T   T
  0.6254591917184428  0.5513452834156281  0.4648804814704705   T   T   T
  0.6189297387719187  0.4350147704381538  0.4836497521221650   T   T   T
  0.5618862808759155  0.5756071812679323  0.4755197338575670   T   T   T
  0.5555162751067423  0.4590756545217232  0.4943835704771778   T   T   T
  0.5270136546948736  0.5296413583087408  0.4904274028134052   T   T   T
  0.0664036476990424  0.2558820467507152  0.5626151354633481   T   T   T
  0.0691388135349263  0.7226404643232641  0.5611808309800566   T   T   T
  0.5487947280623083  0.2060433391499223  0.5616349352768614   T   T   T
  0.5027404478576708  0.6911453905412162  0.5621276432332333   T   T   T
  0.4563054468131053  0.2969591936484017  0.5622665148931828   T   T   T
  0.5088708964440409  0.8195550178020932  0.5618777968694669   T   T   T
  0.9385361177332598  0.2651754576948256  0.5616482430876584   T   T   T
  0.9505668159677652  0.7704865880561490  0.5659156686830761   T   T   T
  0.2247932768209073  0.4534372326647528  0.5658613102695806   T   T   T
  0.2048115567458062  0.9562843730658611  0.5643012323438139   T   T   T
  0.6951231298385380  0.0232273020719064  0.5626350393200948   T   T   T
  0.2972562639778873  0.0462029930336575  0.5663582953518664   T   T   T
  0.2891191755333162  0.5635730881472382  0.5598510637482618   T   T   T
  0.8234505649060235  0.0312199365586994  0.5613935305898157   T   T   T
  0.0487573044319147  0.1993976363165159  0.6551857712977792   T   T   T
  0.0447762293490676  0.7031083882961016  0.6564565571079679   T   T   T
  0.5423766983672216  0.2062112438280513  0.6583844238117108   T   T   T
  0.5476038449204811  0.7055341886696663  0.6564093455386203   T   T   T
  0.2022578366534665  0.4555478570103619  0.6571294396622246   T   T   T
  0.2055304989494535  0.9544356002263118  0.6564533081657051   T   T   T
  0.7040105550362138  0.4508276825976973  0.6528362815667953   T   T   T
  0.7061359977931312  0.9495449776917962  0.6570104538307359   T   T   T
  0.4525874525639466  0.2992530979524374  0.6565411550767153   T   T   T
  0.4489353709451079  0.7892625685481596  0.6565607516545137   T   T   T
  0.9588792498515976  0.2915996007880421  0.6591691739809550   T   T   T
  0.9553277459693570  0.7967947249343971  0.6568688743440267   T   T   T
  0.2982985018867526  0.0448504787913476  0.6567292883197848   T   T   T
  0.2951614401929274  0.5459103201148299  0.6573072522214326   T   T   T
  0.7955827183546896  0.0433594034623598  0.6577595513031292   T   T   T
  0.7950289578263633  0.5425453704815404  0.6549400554225455   T   T   T
  0.0458624996011352  0.2041195035215679  0.7527260184237576   F   F   F
  0.0458624996205117  0.7041195035215679  0.7527260184237576   F   F   F
  0.5458624958803711  0.2041195035215679  0.7527260184237576   F   F   F
  0.5458624958997476  0.7041195035215679  0.7527260184237576   F   F   F
  0.2041189968698021  0.4541010260417480  0.7527049779914137   F   F   F
  0.2041189968729569  0.9541009664717990  0.7527049779914137   F   F   F
  0.7041189670704568  0.4541010260417480  0.7527049779914137   F   F   F
  0.7041189670736117  0.9541009664717990  0.7527049779914137   F   F   F
  0.4541400075181912  0.2958885133423621  0.7527269721025078   F   F   F
  0.4541400074903166  0.7958885431273401  0.7527269721025078   F   F   F
  0.9541400075071209  0.2958885133423621  0.7527269721025078   F   F   F
  0.9541400671111475  0.7958885431273401  0.7527269721025078   F   F   F
  0.2958824932447897  0.0459005012963090  0.7527049779914137   F   F   F
  0.2958824932702626  0.5459005236627235  0.7527049779914137   F   F   F
  0.7958824634454515  0.0459005012963090  0.7527049779914137   F   F   F
  0.7958824634709174  0.5459005236627235  0.7527049779914137   F   F   F
  0.7764408040943294  0.5396260601536648  0.5290070013430433   T   T   T
  0.4973879109207441  0.0148094347780658  0.5531277426712038   T   T   T
  0.4730089263670432  0.4954366234034497  0.5530718404695427   T   T   T
  0.0138460337371199 -0.0083318021797116  0.5521067070524244   T   T   T
  0.0291430574103451  0.4614582069861248  0.5542678110937764   T   T   T
  0.2647845228584429  0.2400204147651233  0.5541461272803825   T   T   T
  0.2608957495753352  0.7586013870080062  0.5519734328272771   T   T   T
  0.7457538692901664  0.2335260309790796  0.5533435556569067   T   T   T
  0.7541138432264478  0.7998762325423446  0.5528469654532526   T   T   T
  0.0030648821020574 -0.0001043096864578  0.6545752782092958   T   T   T
 -0.0040822108136084  0.5034035022262114  0.6542781127219833   T   T   T
  0.5001970579384664 -0.0056236145469332  0.6548516725278576   T   T   T
  0.5045322196943043  0.5021387275917948  0.6542601788674072   T   T   T
  0.2519093332100915  0.2494097261200257  0.6553058801620056   T   T   T
  0.2478638253961183  0.7526450695828868  0.6543943290277764   T   T   T
  0.7496601791383333  0.2527676194543952  0.6547046039743116   T   T   T
  0.7508833013185044  0.7421318649320361  0.6533587037534968   T   T   T
  0.1358673832752694  0.1159519456709484  0.6068371417296897   T   T   T
  0.1330437486621580  0.6173113915826683  0.6063841424893197   T   T   T
  0.6362218712267158  0.1168305626427835  0.6105392543701339   T   T   T
  0.6314588513761694  0.6225604616387791  0.6013376217511838   T   T   T
  0.3598868824380385  0.3915161846861223  0.6074735055953383   T   T   T
  0.3621898571141988  0.8921400379610614  0.6041203856642891   T   T   T
  0.8736721110044562  0.3768667068560504  0.6077889372795103   T   T   T
  0.8686437205718432  0.8845983880879004  0.6095847471234246   T   T   T
  0.1173585463025206  0.3626534153470645  0.6104738114332977   T   T   T
  0.1142512217259338  0.8621075487235090  0.6083965986375439   T   T   T
  0.6102339152518400  0.3629507225501752  0.6036427637117660   T   T   T
  0.6180263703771807  0.8692981891697665  0.6076461230716477   T   T   T
  0.3936746647260229  0.1423386435666731  0.6102172044501618   T   T   T
  0.3855886507887771  0.6372986208931338  0.6096991035558104   T   T   T
  0.8825656235430624  0.1314891545064101  0.6078369318854736   T   T   T
  0.8760410283873726  0.6233529717640152  0.5983821341696667   T   T   T
  0.0000000000000000  0.0000000000000000  0.7549279928135135   F   F   F
  0.0000000000193765  0.5000000000000000  0.7549279928135135   F   F   F
  0.4999999999889297  0.0000000000000000  0.7549279928135135   F   F   F
  0.5000000000083062  0.5000000000000000  0.7549279928135135   F   F   F
  0.2500005066262148  0.2500000000000000  0.7549390196750210   F   F   F
  0.2500005066455913  0.7500000000000000  0.7549390196750210   F   F   F
  0.7500004768268695  0.2500000000000000  0.7549390196750210   F   F   F
  0.7500004768462460  0.7500000000000000  0.7549390196750210   F   F   F
  0.1357904970913637  0.1142100020970958  0.7047830224073479   F   F   F
  0.1357904970574069  0.6142100095710177  0.7047830224073479   F   F   F
  0.6357904672366530  0.1142100020970958  0.7047830224073479   F   F   F
  0.6357904672580617  0.6142100095710177  0.7047830224073479   F   F   F
  0.3642095029149104  0.3857899904289823  0.7047830224073479   F   F   F
  0.3642095029342869  0.8857899904289823  0.7047830224073479   F   F   F
  0.8642095327474735  0.3857899904289823  0.7047830224073479   F   F   F
  0.8642095327114845  0.8857899904289823  0.7047830224073479   F   F   F
  0.1142179891403217  0.3642190098927216  0.7047809958420075   F   F   F
  0.1142179891596982  0.8642190098927216  0.7047809958420075   F   F   F
  0.6142179966039976  0.3642190098927216  0.7047809958420075   F   F   F
  0.6142179965680086  0.8642190098927216  0.7047809958420075   F   F   F
  0.3857820034204806  0.1357814967840127  0.7047820091166770   F   F   F
  0.3857820033926060  0.6357815265689908  0.7047820091166770   F   F   F
  0.8857820034094104  0.1357814967840127  0.7047820091166770   F   F   F
  0.8857820033815287  0.6357815265689908  0.7047820091166770   F   F   F
  0.1346669942216394  0.1153320073988340  0.8012560009966521   F   F   F
  0.1346669941856504  0.6153320073988340  0.8012560009966521   F   F   F
  0.6346669793164352  0.1153320073988340  0.8012560009966521   F   F   F
  0.6346669793358117  0.6153320073988340  0.8012560009966521   F   F   F
  0.3653329908925258  0.3846679926011660  0.8012560009966521   F   F   F
  0.3653329908565368  0.8846679926011589  0.8012560009966521   F   F   F
  0.8653329610931877  0.3846679926011660  0.8012560009966521   F   F   F
  0.8653329610571987  0.8846679926011589  0.8012560009966521   F   F   F
  0.1153285056432978  0.3653370142087482  0.8012650012928191   F   F   F
  0.1153285056073088  0.8653370142087482  0.8012650012928191   F   F   F
  0.6153284907380936  0.3653370142087482  0.8012650012928191   F   F   F
  0.6153284907574701  0.8653370142087482  0.8012650012928191   F   F   F
  0.3846715092631925  0.1346630006837373  0.8012650012928191   F   F   F
  0.3846715092785189  0.6346629857912518  0.8012650012928191   F   F   F
  0.8846715092521222  0.1346630006837373  0.8012650012928191   F   F   F
  0.8846715092674415  0.6346629857912518  0.8012650012928191   F   F   F
  0.0041693921552612 -0.0024423920539266  0.6044467716980976   T   T   T
  0.0029742871336412  0.4946280388385577  0.6037341042387951   T   T   T
  0.5010798005316531  0.0045945983702535  0.6052867304223956   T   T   T
  0.4990858014168436  0.5024783975702324  0.6041598519119336   T   T   T
  0.2542291307859762  0.2481701686845870  0.6056602533439608   T   T   T
  0.2533277720561523  0.7506527188666865  0.6044458589898806   T   T   T
  0.7507803865415992  0.2511422920669625  0.6042015021764234   T   T   T
  0.7524905312853091  0.7568678647145888  0.6021007710780524   T   T   T
  0.0000005000032601  0.0000004999778866  0.7048289775829417   F   F   F
  0.0000005000163412  0.5000004768364050  0.7048289775829417   F   F   F
  0.5000004768481432  0.0000004999778866  0.7048289775829417   F   F   F
  0.5000004768612172  0.5000004768364050  0.7048289775829417   F   F   F
  0.2499999999728644  0.2499994784861386  0.7048249840801901   F   F   F
  0.2500000000044054  0.7499995231635950  0.7048249840801901   F   F   F
  0.7500000000171596  0.2499994784861386  0.7048249840801901   F   F   F
  0.7499999999933351  0.7499995231635950  0.7048249840801901   F   F   F
  0.0000000000000000  0.0000000000000000  0.8073179721848831   F   F   F
  0.0000000000193765  0.5000000000000000  0.8073179721848831   F   F   F
  0.4999999999889297  0.0000000000000000  0.8073179721848831   F   F   F
  0.5000000000083062  0.5000000000000000  0.8073179721848831   F   F   F
  0.2500000000041496  0.2500000000000000  0.8073179721848831   F   F   F
  0.2500000000235332  0.7500000000000000  0.8073179721848831   F   F   F
  0.7499999999930793  0.2500000000000000  0.8073179721848831   F   F   F
  0.7500000000124558  0.7500000000000000  0.8073179721848831   F   F   F
 
  0.00000000E+00  0.00000000E+00  0.00000000E+00
  0.00000000E+00  0.00000000E+00  0.00000000E+00
  0.00000000E+00  0.00000000E+00  0.00000000E+00
  0.00000000E+00  0.00000000E+00  0.00000000E+00
  0.00000000E+00  0.00000000E+00  0.00000000E+00
  0.00000000E+00  0.00000000E+00  0.00000000E+00
  0.00000000E+00  0.00000000E+00  0.00000000E+00
  0.00000000E+00  0.00000000E+00  0.00000000E+00
  0.00000000E+00  0.00000000E+00  0.00000000E+00
  0.00000000E+00  0.00000000E+00  0.00000000E+00
  0.00000000E+00  0.00000000E+00  0.00000000E+00
  0.00000000E+00  0.00000000E+00  0.00000000E+00
  0.00000000E+00  0.00000000E+00  0.00000000E+00
  0.00000000E+00  0.00000000E+00  0.00000000E+00
  0.00000000E+00  0.00000000E+00  0.00000000E+00
  0.00000000E+00  0.00000000E+00  0.00000000E+00
  0.00000000E+00  0.00000000E+00  0.00000000E+00
  0.00000000E+00  0.00000000E+00  0.00000000E+00
  0.00000000E+00  0.00000000E+00  0.00000000E+00
  0.00000000E+00  0.00000000E+00  0.00000000E+00
  0.00000000E+00  0.00000000E+00  0.00000000E+00
  0.00000000E+00  0.00000000E+00  0.00000000E+00
  0.00000000E+00  0.00000000E+00  0.00000000E+00
  0.00000000E+00  0.00000000E+00  0.00000000E+00
  0.00000000E+00  0.00000000E+00  0.00000000E+00
  0.00000000E+00  0.00000000E+00  0.00000000E+00
  0.00000000E+00  0.00000000E+00  0.00000000E+00
  0.00000000E+00  0.00000000E+00  0.00000000E+00
  0.00000000E+00  0.00000000E+00  0.00000000E+00
  0.00000000E+00  0.00000000E+00  0.00000000E+00
  0.00000000E+00  0.00000000E+00  0.00000000E+00
  0.00000000E+00  0.00000000E+00  0.00000000E+00
  0.00000000E+00  0.00000000E+00  0.00000000E+00
  0.00000000E+00  0.00000000E+00  0.00000000E+00
  0.00000000E+00  0.00000000E+00  0.00000000E+00
  0.00000000E+00  0.00000000E+00  0.00000000E+00
  0.00000000E+00  0.00000000E+00  0.00000000E+00
  0.00000000E+00  0.00000000E+00  0.00000000E+00
  0.00000000E+00  0.00000000E+00  0.00000000E+00
  0.00000000E+00  0.00000000E+00  0.00000000E+00
  0.00000000E+00  0.00000000E+00  0.00000000E+00
  0.00000000E+00  0.00000000E+00  0.00000000E+00
  0.00000000E+00  0.00000000E+00  0.00000000E+00
  0.00000000E+00  0.00000000E+00  0.00000000E+00
  0.00000000E+00  0.00000000E+00  0.00000000E+00
  0.00000000E+00  0.00000000E+00  0.00000000E+00
  0.00000000E+00  0.00000000E+00  0.00000000E+00
  0.00000000E+00  0.00000000E+00  0.00000000E+00
  0.00000000E+00  0.00000000E+00  0.00000000E+00
  0.00000000E+00  0.00000000E+00  0.00000000E+00
  0.00000000E+00  0.00000000E+00  0.00000000E+00
  0.00000000E+00  0.00000000E+00  0.00000000E+00
  0.00000000E+00  0.00000000E+00  0.00000000E+00
  0.00000000E+00  0.00000000E+00  0.00000000E+00
  0.00000000E+00  0.00000000E+00  0.00000000E+00
  0.00000000E+00  0.00000000E+00  0.00000000E+00
  0.00000000E+00  0.00000000E+00  0.00000000E+00
  0.00000000E+00  0.00000000E+00  0.00000000E+00
  0.00000000E+00  0.00000000E+00  0.00000000E+00
  0.00000000E+00  0.00000000E+00  0.00000000E+00
  0.00000000E+00  0.00000000E+00  0.00000000E+00
  0.00000000E+00  0.00000000E+00  0.00000000E+00
  0.00000000E+00  0.00000000E+00  0.00000000E+00
  0.00000000E+00  0.00000000E+00  0.00000000E+00
  0.00000000E+00  0.00000000E+00  0.00000000E+00
  0.00000000E+00  0.00000000E+00  0.00000000E+00
  0.00000000E+00  0.00000000E+00  0.00000000E+00
  0.00000000E+00  0.00000000E+00  0.00000000E+00
  0.00000000E+00  0.00000000E+00  0.00000000E+00
  0.00000000E+00  0.00000000E+00  0.00000000E+00
  0.00000000E+00  0.00000000E+00  0.00000000E+00
  0.00000000E+00  0.00000000E+00  0.00000000E+00
  0.00000000E+00  0.00000000E+00  0.00000000E+00
  0.00000000E+00  0.00000000E+00  0.00000000E+00
  0.00000000E+00  0.00000000E+00  0.00000000E+00
  0.00000000E+00  0.00000000E+00  0.00000000E+00
  0.00000000E+00  0.00000000E+00  0.00000000E+00
  0.00000000E+00  0.00000000E+00  0.00000000E+00
  0.00000000E+00  0.00000000E+00  0.00000000E+00
  0.00000000E+00  0.00000000E+00  0.00000000E+00
  0.00000000E+00  0.00000000E+00  0.00000000E+00
  0.00000000E+00  0.00000000E+00  0.00000000E+00
  0.00000000E+00  0.00000000E+00  0.00000000E+00
  0.00000000E+00  0.00000000E+00  0.00000000E+00
  0.00000000E+00  0.00000000E+00  0.00000000E+00
  0.00000000E+00  0.00000000E+00  0.00000000E+00
  0.00000000E+00  0.00000000E+00  0.00000000E+00
  0.00000000E+00  0.00000000E+00  0.00000000E+00
  0.00000000E+00  0.00000000E+00  0.00000000E+00
  0.00000000E+00  0.00000000E+00  0.00000000E+00
  0.00000000E+00  0.00000000E+00  0.00000000E+00
  0.00000000E+00  0.00000000E+00  0.00000000E+00
  0.00000000E+00  0.00000000E+00  0.00000000E+00
  0.00000000E+00  0.00000000E+00  0.00000000E+00
  0.00000000E+00  0.00000000E+00  0.00000000E+00
  0.00000000E+00  0.00000000E+00  0.00000000E+00
  0.00000000E+00  0.00000000E+00  0.00000000E+00
  0.00000000E+00  0.00000000E+00  0.00000000E+00
  0.00000000E+00  0.00000000E+00  0.00000000E+00
  0.00000000E+00  0.00000000E+00  0.00000000E+00
  0.00000000E+00  0.00000000E+00  0.00000000E+00
  0.00000000E+00  0.00000000E+00  0.00000000E+00
  0.00000000E+00  0.00000000E+00  0.00000000E+00
  0.00000000E+00  0.00000000E+00  0.00000000E+00
  0.00000000E+00  0.00000000E+00  0.00000000E+00
  0.00000000E+00  0.00000000E+00  0.00000000E+00
  0.00000000E+00  0.00000000E+00  0.00000000E+00
  0.00000000E+00  0.00000000E+00  0.00000000E+00
  0.00000000E+00  0.00000000E+00  0.00000000E+00
  0.00000000E+00  0.00000000E+00  0.00000000E+00
  0.00000000E+00  0.00000000E+00  0.00000000E+00
  0.00000000E+00  0.00000000E+00  0.00000000E+00
  0.00000000E+00  0.00000000E+00  0.00000000E+00
  0.00000000E+00  0.00000000E+00  0.00000000E+00
  0.00000000E+00  0.00000000E+00  0.00000000E+00
  0.00000000E+00  0.00000000E+00  0.00000000E+00
  0.00000000E+00  0.00000000E+00  0.00000000E+00
  0.00000000E+00  0.00000000E+00  0.00000000E+00
  0.00000000E+00  0.00000000E+00  0.00000000E+00
  0.00000000E+00  0.00000000E+00  0.00000000E+00