PerovskiteSurface_12951678_1
1.0
       18.0608005524         0.0000000000         0.0000000000
       -0.0049186487        18.0627987840         0.0000000000
        0.0000000000         0.0000000000        62.4874992371
     H     C     N     I     Pb
     143     39     47     72     24
Selective Dynamics
Cartesian
          8.123312019          5.415272448          36.359539078   T   T   T
          8.120852694          14.446672378          36.359539078   T   T   T
          17.153711757          5.415272448          36.359539078   T   T   T
          17.151252432          14.446672378          36.359539078   T   T   T
          5.440076621          0.92571843          36.359539078   T   T   T
          5.437617297          9.957117485          36.359539078   T   T   T
          14.470477436          0.92571843          36.359539078   T   T   T
          1.43750212          3.092170409          34.802600971   T   T   T
          1.435042796          12.123570339          34.802600971   T   T   T
          10.467902665          3.092170409          34.802600971   T   T   T
          10.465443341          12.123570339          34.802600971   T   T   T
          5.93922215          1.425172893          34.802600971   T   T   T
          5.936762826          10.45657215          34.802600971   T   T   T
          14.969622426          1.425172893          34.802600971   T   T   T
          0.90468316          3.616136095          36.359412444   T   T   T
          0.902223835          12.647535487          36.359412444   T   T   T
          9.935083571          3.616136095          36.359412444   T   T   T
          9.932624246          12.647535487          36.359412444   T   T   T
          3.587846578          8.105644155          36.359412444   T   T   T
          3.585387253          17.137045162          36.359412444   T   T   T
          12.615787529          17.137045162          36.359412444   T   T   T
          7.590258216          5.939346336          34.802537654   T   T   T
          7.587798891          14.970746266          34.802537654   T   T   T
          16.62065903          5.939346336          34.802537654   T   T   T
          16.618200782          14.970746266          34.802537654   T   T   T
          3.088718802          7.606226634          34.802537654   T   T   T
          3.086259477          16.637627103          34.802537654   T   T   T
          12.116659753          16.637627103          34.802537654   T   T   T
          9.029125386          4.515754066          33.649329073   T   T   T
          9.026665523          13.547152919          33.649329073   T   T   T
          18.059526739          4.515754066          33.649329073   T   T   T
          18.057066338          13.547152919          33.649329073   T   T   T
          4.512740545          9.031399392          33.649329073   T   T   T
          4.515200138          0.0          33.649329073   T   T   T
          13.545600414          0.0          33.649329073   T   T   T
          8.104079043          5.441300975          42.128133299   T   T   T
          8.101619719          14.472700906          42.128133299   T   T   T
          17.134479319          5.441300975          42.128133299   T   T   T
          17.132018918          14.472700906          42.128133299   T   T   T
          5.440076621          0.92571843          42.127008486   T   T   T
          5.437617297          9.957117485          42.127008486   T   T   T
          14.470477436          0.92571843          42.127008486   T   T   T
          14.468018112          9.957117485          42.127008486   T   T   T
          1.422810135          3.09048172          40.545324501   T   T   T
          1.420350811          12.121881112          40.545324501   T   T   T
          10.453209873          3.09048172          40.545324501   T   T   T
          10.450750549          12.121881112          40.545324501   T   T   T
          3.088718802          7.606226634          40.544076778   T   T   T
          3.086259477          16.637627103          40.544076778   T   T   T
          12.119119078          7.606226634          40.544076778   T   T   T
          12.116659753          16.637627103          40.544076778   T   T   T
          0.923852758          3.590098686          42.128196616   T   T   T
          0.921393434          12.621498347          42.128196616   T   T   T
          9.954252496          3.590098686          42.128196616   T   T   T
          9.951793172          12.621498347          42.128196616   T   T   T
          3.587846578          8.105644155          42.126948894   T   T   T
          3.585387253          17.137045162          42.126948894   T   T   T
          12.618246854          8.105644155          42.126948894   T   T   T
          12.615787529          17.137045162          42.126948894   T   T   T
          7.605166887          5.940890757          40.545324501   T   T   T
          7.602707563          14.972290149          40.545324501   T   T   T
          16.635567163          5.940890757          40.545324501   T   T   T
          16.633107839          14.972290149          40.545324501   T   T   T
          5.93922215          1.425172893          40.544140096   T   T   T
          5.936762826          10.45657215          40.544140096   T   T   T
          14.969622426          1.425172893          40.544140096   T   T   T
          14.967163102          10.45657215          40.544140096   T   T   T
          -0.001229667          4.515717999          39.435048752   T   T   T
          -0.003688992          13.547117391          39.435048752   T   T   T
          9.029170609          4.515717999          39.435048752   T   T   T
          9.026711285          13.547117391          39.435048752   T   T   T
          4.515200131          2.7094e-05          39.433923939   T   T   T
          4.512740537          9.031426308          39.433923939   T   T   T
          13.545600407          2.7094e-05          39.433923939   T   T   T
          13.543141083          9.031426308          39.433923939   T   T   T
          8.103212256          5.442032005          48.045951423   F   F   F
          8.100752931          14.473430858          48.045951423   F   F   F
          17.133611455          5.442032005          48.045951423   F   F   F
          17.131153208          14.473430858          48.045951423   F   F   F
          5.441033418          0.926522199          48.04494952   F   F   F
          5.438574093          9.957921725          48.04494952   F   F   F
          14.471433156          0.926522199          48.04494952   F   F   F
          14.468973831          9.957921725          48.04494952   F   F   F
          1.42182539          3.091998956          46.455831343   F   F   F
          1.419366066          12.123398079          46.455831343   F   F   F
          10.452225532          3.091998956          46.455831343   F   F   F
          10.449766208          12.123398079          46.455831343   F   F   F
          3.089928425          7.607590182          46.454520303   F   F   F
          3.0874691          16.638990112          46.454520303   F   F   F
          12.120328701          7.607590182          46.454520303   F   F   F
          12.117869377          16.638990112          46.454520303   F   F   F
          0.924747002          3.589349085          48.045951423   F   F   F
          0.922287678          12.620747938          48.045951423   F   F   F
          9.955147278          3.589349085          48.045951423   F   F   F
          9.952687954          12.620747938          48.045951423   F   F   F
          3.586898391          8.104849605          48.044889927   F   F   F
          3.584439067          17.136249535          48.044889927   F   F   F
          12.617298667          8.104849605          48.044889927   F   F   F
          12.614839343          17.136249535          48.044889927   F   F   F
          7.606160919          5.9393641          46.455831343   F   F   F
          7.603701595          14.970763492          46.455831343   F   F   F
          16.636560119          5.9393641          46.455831343   F   F   F
          16.634101871          14.970763492          46.455831343   F   F   F
          5.938012529          1.423800059          46.454520303   F   F   F
          5.935553205          10.455199451          46.454520303   F   F   F
          14.968412806          1.423800059          46.454520303   F   F   F
          14.965953481          10.455199451          46.454520303   F   F   F
          -0.001166457          4.515726612          45.354799915   F   F   F
          -0.003625781          13.547126004          45.354799915   F   F   F
          9.029234121          4.515726612          45.354799915   F   F   F
          9.026774796          13.547126004          45.354799915   F   F   F
          4.515209288          0.0          45.353675102   F   F   F
          4.512749964          9.031399392          45.353675102   F   F   F
          13.545609026          0.0          45.353675102   F   F   F
          13.543149702          9.031399392          45.353675102   F   F   F
          12.743708610534668          9.980567932128906          31.90790557861328   T   T   T
          14.141263008117676          11.000219345092773          31.574621200561523   T   T   T
          14.35006046295166          11.238448143005371          34.952903747558594   T   T   T
          13.928102493286133          11.857417106628418          33.317481994628906   T   T   T
          15.939630508422852          9.935909271240234          34.61250305175781   T   T   T
          16.134662628173828          8.92566204071045          33.14761734008789   T   T   T
          12.60092830657959          8.636157989501953          33.83414077758789   T   T   T
          14.079171180725098          7.761050224304199          33.4119758605957   T   T   T
          15.5342378616333          8.972604751586914          31.118736267089844   T   T   T
          14.115113258361816          7.946526050567627          31.281614303588867   T   T   T
          13.968465805053711          10.320091247558594          29.411121368408203   T   T   T
          14.980875968933105          8.96048641204834          28.93375015258789   T   T   T
          12.063932418823242          10.146026611328125          35.08032989501953   T   T   T
          11.931528091430664          11.875977516174316          34.87324523925781   T   T   T
          11.663387298583984          10.814996719360352          33.48727798461914   T   T   T
          16.213895797729492          11.016024589538574          31.748897552490234   T   T   T
          15.990130424499512          12.007829666137695          33.204654693603516   T   T   T
          17.45915985107422          11.059123992919922          32.995033264160156   T   T   T
          13.838720321655273          9.395020484924316          36.00110626220703   T   T   T
          13.54903507232666          7.653252601623535          35.88814926147461   T   T   T
          15.148645401000977          8.293802261352539          35.53459167480469   T   T   T
          12.754101753234863          8.68577766418457          27.978137969970703   T   T   T
          13.098920822143555          7.395701885223389          29.121068954467773   T   T   T
          11.26249885559082          10.605224609375          28.642879486083984   T   T   T
          11.891670227050781          7.196334838867188          31.208765029907227   T   T   T
          9.384613990783691          11.331476211547852          30.08340072631836   T   T   T
          10.044156074523926          7.999053001403809          32.679866790771484   T   T   T
          8.818859100341797          10.007503509521484          32.13901901245117   T   T   T
          -0.001003784          4.515265815          34.740114277   T   T   T
          -0.003463108          13.546665207          34.740114277   T   T   T
          9.029396799          4.515265815          34.740114277   T   T   T
          9.026937474          13.546665207          34.740114277   T   T   T
          4.512740545          9.031399392          34.740114277   T   T   T
          4.515200138          0.0          34.740114277   T   T   T
          13.545600414          0.0          34.740114277   T   T   T
          -0.001067071          4.515537395          40.524832053   T   T   T
          -0.003526395          13.546936517          40.524832053   T   T   T
          9.029333211          4.515537395          40.524832053   T   T   T
          9.026873887          13.546936517          40.524832053   T   T   T
          4.512731666          9.031390241          40.523580606   T   T   T
          4.510272611          18.062790171          40.523580606   T   T   T
          13.54313248          9.031390241          40.523580606   T   T   T
          13.540673156          18.062790171          40.523580606   T   T   T
          9.028971485          4.515609259          46.445521802   F   F   F
          9.026513237          13.547008651          46.445521802   F   F   F
          18.059371761          4.515609259          46.445521802   F   F   F
          18.056913513          13.547008651          46.445521802   F   F   F
          4.515209283          1.8063e-05          46.444207037   F   F   F
          4.512749959          9.031417695          46.444207037   F   F   F
          13.545609021          1.8063e-05          46.444207037   F   F   F
          13.543149697          9.031417695          46.444207037   F   F   F
          13.831010818481445          10.0094575881958          31.915267944335938   T   T   T
          13.749691009521484          11.077609062194824          34.053340911865234   T   T   T
          15.75173568725586          9.871124267578125          33.539432525634766   T   T   T
          13.684099197387695          8.612122535705566          33.97206497192383   T   T   T
          14.447702407836914          8.950583457946777          31.00855827331543   T   T   T
          14.12227725982666          9.245207786560059          29.54758644104004   T   T   T
          12.269426345825195          10.961738586425781          34.384307861328125   T   T   T
          16.3791561126709          11.058331489562988          32.828041076660156   T   T   T
          14.078847885131836          8.493746757507324          35.43229675292969   T   T   T
          12.91555404663086          8.47074031829834          29.038759231567383   T   T   T
          11.68653392791748          8.82926082611084          29.805875778198242   T   T   T
          10.974000930786133          9.99545669555664          29.493568420410156   T   T   T
          11.321276664733887          8.072918891906738          30.926563262939453   T   T   T
          9.91583251953125          10.4112548828125          30.306467056274414   T   T   T
          10.281639099121094          8.50605297088623          31.748138427734375   T   T   T
          9.583020210266113          9.67093563079834          31.442337036132812   T   T   T
          0.825826051          3.695820199          35.343367688   T   T   T
          0.823366727          12.72721986          35.343367688   T   T   T
          9.856225991          3.695820199          35.343367688   T   T   T
          9.853766666          12.72721986          35.343367688   T   T   T
          8.201952075          5.335841083          35.34368055   T   T   T
          8.199492212          14.367241013          35.34368055   T   T   T
          17.232352889          5.335841083          35.34368055   T   T   T
          17.229892488          14.367241013          35.34368055   T   T   T
          3.684716237          8.203039037          35.343367688   T   T   T
          3.682256912          17.234440044          35.343367688   T   T   T
          12.712657457          17.234440044          35.343367688   T   T   T
          5.343224982          0.828368968          35.34368055   T   T   T
          5.340765657          9.859768899          35.34368055   T   T   T
          14.37362472          0.828368968          35.34368055   T   T   T
          0.826469604          3.687159006          41.116461159   T   T   T
          0.82401028          12.718558398          41.116461159   T   T   T
          9.856869948          3.687159006          41.116461159   T   T   T
          9.854410623          12.718558398          41.116461159   T   T   T
          3.684716237          8.203039037          41.115336347   T   T   T
          3.682256912          17.234440044          41.115336347   T   T   T
          12.715116782          8.203039037          41.115336347   T   T   T
          12.712657457          17.234440044          41.115336347   T   T   T
          8.201236533          5.344493393          41.116587794   T   T   T
          8.198777208          14.375892785          41.116587794   T   T   T
          17.231635732          5.344493393          41.116587794   T   T   T
          17.229177484          14.375892785          41.116587794   T   T   T
          5.343224982          0.828368968          41.115336347   T   T   T
          5.340765657          9.859768899          41.115336347   T   T   T
          14.37362472          0.828368968          41.115336347   T   T   T
          14.371165395          9.859768899          41.115336347   T   T   T
          0.827309466          3.68696952          47.035966502   F   F   F
          0.824850142          12.718368912          47.035966502   F   F   F
          9.857709675          3.68696952          47.035966502   F   F   F
          9.855250351          12.718368912          47.035966502   F   F   F
          3.684318928          8.202335461          47.034651738   F   F   F
          3.681859604          17.233733777          47.034651738   F   F   F
          12.714718666          8.202335461          47.034651738   F   F   F
          12.712259342          17.233733777          47.034651738   F   F   F
          8.200676727          5.344574679          47.036026095   F   F   F
          8.198217402          14.375974609          47.036026095   F   F   F
          17.231077003          5.344574679          47.036026095   F   F   F
          17.228618755          14.375974609          47.036026095   F   F   F
          5.343648929          0.829091519          47.034651738   F   F   F
          5.341189605          9.860491315          47.034651738   F   F   F
          14.374048667          0.829091519          47.034651738   F   F   F
          14.371589343          9.860491315          47.034651738   F   F   F
          14.261183738708496          9.849196434020996          33.346397399902344   T   T   T
          9.030400276          0.0          34.487102197   T   T   T
          9.027940952          9.031399392          34.487102197   T   T   T
          0.0          0.0          34.487102197   T   T   T
          -0.002459324          9.031399392          34.487102197   T   T   T
          4.513988777          4.515699696          34.48822701   T   T   T
          4.511529452          13.547099088          34.48822701   T   T   T
          13.544389053          4.515699696          34.48822701   T   T   T
          13.541929728          13.547099088          34.48822701   T   T   T
          0.0          0.0          40.860324186   T   T   T
          -0.002459324          9.031399392          40.860324186   T   T   T
          9.030400276          0.0          40.860324186   T   T   T
          9.027940952          9.031399392          40.860324186   T   T   T
          4.513970476          4.515699696          40.861139862   T   T   T
          4.511511152          13.547099088          40.861139862   T   T   T
          13.544370752          4.515699696          40.861139862   T   T   T
          13.541911428          13.547099088          40.861139862   T   T   T
          2.585040579          1.930181606          37.956031855   T   T   T
          2.582581255          10.961581132          37.956031855   T   T   T
          11.615441394          1.930181606          37.956031855   T   T   T
          11.612982069          10.961581132          37.956031855   T   T   T
          6.442891217          7.101235955          37.956031855   T   T   T
          6.440431893          16.132635347          37.956031855   T   T   T
          15.473291493          7.101235955          37.956031855   T   T   T
          15.470832169          16.132635347          37.956031855   T   T   T
          1.928853805          6.446613004          37.958218163   T   T   T
          1.92639448          15.478011858          37.958218163   T   T   T
          10.959253543          6.446613004          37.958218163   T   T   T
          10.956794218          15.478011858          37.958218163   T   T   T
          7.099087142          2.584804691          37.958218163   T   T   T
          7.096627818          11.616203544          37.958218163   T   T   T
          16.129487957          2.584804691          37.958218163   T   T   T
          16.127029709          11.616203544          37.958218163   T   T   T
          0.0          0.0          47.173562375   F   F   F
          -0.002459324          9.031399392          47.173562375   F   F   F
          9.030400276          0.0          47.173562375   F   F   F
          9.027940952          9.031399392          47.173562375   F   F   F
          4.513979626          4.515699696          47.174251416   F   F   F
          4.511520302          13.547099088          47.174251416   F   F   F
          13.544379364          4.515699696          47.174251416   F   F   F
          13.54192004          13.547099088          47.174251416   F   F   F
          2.451923326          2.062952287          44.040128575   F   F   F
          2.449464001          11.094351814          44.040128575   F   F   F
          11.482323063          2.062952287          44.040128575   F   F   F
          11.479863739          11.094351814          44.040128575   F   F   F
          6.576017626          6.96844697          44.040128575   F   F   F
          6.573558302          15.999846362          44.040128575   F   F   F
          15.606418441          6.96844697          44.040128575   F   F   F
          15.603959116          15.999846362          44.040128575   F   F   F
          2.061076856          6.578814689          44.04000194   F   F   F
          2.058617532          15.610214081          44.04000194   F   F   F
          11.091477267          6.578814689          44.04000194   F   F   F
          11.089017942          15.610214081          44.04000194   F   F   F
          6.966863959          2.452593855          44.040065257   F   F   F
          6.964404634          11.483993785          44.040065257   F   F   F
          15.997264235          2.452593855          44.040065257   F   F   F
          15.99480491          11.483993785          44.040065257   F   F   F
          2.431626446          2.083218843          50.068483751   F   F   F
          2.429167121          11.114618235          50.068483751   F   F   F
          11.462026453          2.083218843          50.068483751   F   F   F
          11.459567129          11.114618235          50.068483751   F   F   F
          6.596314237          6.948180549          50.068483751   F   F   F
          6.593854912          15.979579941          50.068483751   F   F   F
          15.626713975          6.948180549          50.068483751   F   F   F
          15.62425465          15.979579941          50.068483751   F   F   F
          2.081128174          6.599008976          50.069046157   F   F   F
          2.078668849          15.630408368          50.069046157   F   F   F
          11.111528181          6.599008976          50.069046157   F   F   F
          11.109068857          15.630408368          50.069046157   F   F   F
          6.946813047          2.432390685          50.069046157   F   F   F
          6.944353723          11.463789808          50.069046157   F   F   F
          15.977213323          2.432390685          50.069046157   F   F   F
          15.974753999          11.463789808          50.069046157   F   F   F
          9.025e-06          1.8063e-05          37.630409767   T   T   T
          -0.002450299          9.031417695          37.630409767   T   T   T
          9.030408883          1.8063e-05          37.630409767   T   T   T
          9.027949559          9.031417695          37.630409767   T   T   T
          4.513970478          4.515690276          37.630908856   T   T   T
          4.511511154          13.547090475          37.630908856   T   T   T
          13.544370755          4.515690276          37.630908856   T   T   T
          13.54191143          13.547090475          37.630908856   T   T   T
          9.028e-06          9.031e-06          44.043000199   F   F   F
          -0.002450296          9.031408005          44.043000199   F   F   F
          9.030408886          9.031e-06          44.043000199   F   F   F
          9.027949562          9.031408005          44.043000199   F   F   F
          4.513970478          4.515690276          44.042750655   F   F   F
          4.511511154          13.547090475          44.042750655   F   F   F
          13.544370755          4.515690276          44.042750655   F   F   F
          13.54191143          13.547090475          44.042750655   F   F   F
          0.0          0.0          50.447281171   F   F   F
          -0.002459324          9.031399392          50.447281171   F   F   F
          9.030400276          0.0          50.447281171   F   F   F
          9.027940952          9.031399392          50.447281171   F   F   F
          4.513970476          4.515699696          50.447281171   F   F   F
          4.511511152          13.547099088          50.447281171   F   F   F
          13.544370752          4.515699696          50.447281171   F   F   F
          13.541911428          13.547099088          50.447281171   F   F   F
