H    C    N    I    Pb                  
    1.000000000000000     
    18.0608005523681996    0.0000000000000000    0.0000000000000000
    -0.0049186488613486   18.0627994537354013    0.0000000000000000
     0.0000000000000000    0.0000000000000000   62.4874992370604971
   H    C    N    I    Pb
   143    39    47    72    24
Direct
  0.4972398401026435  0.3357861362670020  0.5684210682517836
  0.4027560530982874  0.7709114433327534  0.5679198782960759
  0.9301564112241797  0.2274270662891353  0.5775472140923492
  0.9180973654729502  0.7769924888604904  0.5698877946629386
  0.2711723381680867  0.0939523641481456  0.5704710299551673
  0.3283690736470474  0.5782863622319394  0.5698435782447480
  0.7817661839514655  0.0988962435309424  0.5639513145744635
  0.1166289887328959  0.2223814854480238  0.5554783756052126
  0.1009423495398617  0.7017084917978985  0.5601774998041135
  0.5403976199745343  0.1400525710840174  0.5608462052906277
  0.5925541243655684  0.7031486399332176  0.5629035074691264
  0.3564007262669838  0.0544822324464762  0.5628207330447569
  0.3309484013097178  0.5123902725635090  0.5497039302799603
  0.8622344175170544  0.0488712538102770  0.5572116058220296
  0.0466130393350077  0.1634419612808833  0.5644870996155582
  0.0117064617042932  0.6747854603971628  0.5685216729334183
  0.5856632210374711  0.2245748434709999  0.5651692757990624
  0.5025874873847488  0.6695369112432277  0.5674332559809392
  0.2235125700263103  0.5314981528539320  0.5857207197496294
  0.1661006988862664  0.0018639094954878  0.5740654229520822
  0.6722990991257800  0.0170651650097268  0.5740992716024028
  0.4038925707587065  0.3151543319611835  0.5636421405322303
  0.4370618021678986  0.8606271821630019  0.5635409368719716
  0.9268631412788625  0.3224425300239927  0.5733624290195115
  0.9506614889163240  0.8646377333344947  0.5617470286507596
  0.1693892731524530  0.4237902969803504  0.5743942730488010
  0.1887855911765143  0.9100002578650177  0.5668619209233852
  0.6830372481084532  0.9227811114302827  0.5678012900921382
  0.4244225831956385  0.1917855016083915  0.5582636923025592
  0.5572409211997430  0.8230779066327175  0.5592408150961306
  0.0422610232503101  0.3278688528305841  0.5575468180691874
  0.0671817821602881  0.8217183397929329  0.5538109767627134
  0.2285919589358882  0.4116310201564249  0.5527253090655248
  0.3088339972818940  0.9378927029223812  0.5587971770771221
  0.8027977955793120  0.9357972014846038  0.5568964119558907
  0.4050862415736881  0.2647758657975220  0.6558952125167415
  0.4704909908296859  0.8129179015622067  0.6759778974053807
  0.9455247560443250  0.3326071950553679  0.6693540894861980
  0.9930461290426155  0.7608404490872716  0.6839327944188737
  0.3072395295723927  0.0265055579121398  0.6774761162696759
  0.3152514376766619  0.5149065434280832  0.6763534333989500
  0.7840916082715659  0.0495651039656400  0.6796245463888250
  0.8432474782782607  0.5023400869723995  0.6619951671006419
  0.0725239928670215  0.1769621911217036  0.6639103387740465
  0.0656336796984833  0.7069163695781624  0.6437190286465357
  0.5981166784637848  0.2009739757365694  0.6600866441692663
  0.5728120462091625  0.6726977502599439  0.6458936332355556
  0.1692747354638838  0.4251988879953674  0.6460891252781038
  0.1657457654741074  0.9271080604693772  0.6472476220928478
  0.6470621048525473  0.4511043550422616  0.6572233957133213
  0.6753610595475393  0.9258508921234543  0.6455746260046664
  0.0474909840222685  0.2462771703268413  0.6818755068140476
  0.0812331065928360  0.6808707237869915  0.6702819609774305
  0.5089064315541461  0.1637045230916921  0.6583625316285817
  0.5639053538381635  0.7067056727649448  0.6719710071000228
  0.2389366802205468  0.4061155642867865  0.6645865089796450
  0.2000151357854339  0.9349691854458176  0.6732703640948405
  0.7337347532559104  0.4085800407558365  0.6601128638608360
  0.6871616060614723  0.9482428894219631  0.6725101978104046
  0.4391662349438463  0.3552730032666821  0.6560938938786995
  0.4221283098650423  0.8352396801420956  0.6527155499223118
  0.9226622712847862  0.3255463410486223  0.6422767498172117
  0.9252853861088274  0.8377994889956756  0.6625069219104078
  0.3296040564401856  0.0765383453151838  0.6545699580262662
  0.2918827756485679  0.6006862286311527  0.6646924991617252
  0.8321917525754277  0.0798275643929494  0.6571866327837508
  0.8157973367736001  0.5949326727052896  0.6596313443498938
 -0.0012540713347829  0.2239536901115943  0.6365416468688002
  0.9681134601047534  0.8093592533199635  0.6387770024054764
  0.5606175564155558  0.3214377266114931  0.6591460356232306
  0.4825160235146114  0.7486464291684711  0.6319775626352145
  0.2423016751756465  0.0177386863584051  0.6334967528538052
  0.1967367633439689  0.5504907246770500  0.6445035607562126
  0.7666304756112675  0.0054676531975913  0.6337414931056199
  0.6928563358538485  0.5689376072330804  0.6564191327979599
  0.4562554486283265  0.2642144840563051  0.7810824237855015
  0.4512780142595273  0.7830987752027114  0.7775495876170353
  0.9565709718056166  0.2555120476759433  0.7821442737632346
  0.9479842995904070  0.7894087503992386  0.7756596932506461
  0.2992643106100746  0.0527238049374195  0.7760424660401012
  0.2974029357359735  0.5547274760001177  0.7751830259476421
  0.7902446682778979  0.0783092840121990  0.7722333635619897
  0.7976232592876369  0.5584437799581949  0.7735896071533302
  0.0844253153712170  0.1798381425970717  0.7430668911437105
  0.0839698174500640  0.6743995923071161  0.7482154850372328
  0.5844771443428550  0.1769298502637965  0.7442064169806776
  0.5794378181039388  0.6755086936919388  0.7452915796709250
  0.1702427243035912  0.4247711645897964  0.7497762552136340
  0.1720332083593122  0.9246879146391506  0.7496737665920237
  0.6700816183390347  0.4260620652140895  0.7491518361164854
  0.6837979588839237  0.9166672547567363  0.7564419915861078
  0.0592413324574487  0.1709223439624195  0.7698700806574014
  0.0499005830893490  0.6918279608786593  0.7738830701406340
  0.5581454374602175  0.1750487925692469  0.7710068198561251
  0.5509466100988493  0.6865015286926033  0.7717961949675355
  0.1982485384530689  0.4543968663287900  0.7750317073195008
  0.1983811541645600  0.9533669655930960  0.7752074607423778
  0.6969510990771355  0.4593437025557339  0.7742365639491404
  0.6917071112091183  0.9819109819100779  0.7769417095731381
  0.4323417745874664  0.3296011481855919  0.7617755747104857
  0.4255674521915310  0.8339105229039935  0.7550799827627208
  0.9340700232646983  0.3279023251903428  0.7647952160283408
  0.9252295680093972  0.8308079881871461  0.7514260554851072
  0.3306599547027239  0.0815382053204064  0.7510594878268256
  0.3274228142749919  0.5834804317862333  0.7500406111891340
  0.8336339963828406  0.0798622978794551  0.7473117274624181
  0.8286622395722838  0.5830499624522267  0.7480996444231783
  0.0099255226532948  0.2830076253535186  0.7374706270269137
  0.0085439391378521  0.7600403580727038  0.7319008470484908
  0.5088625390980716  0.2765498125330999  0.7358029331178442
  0.5035608162744515  0.7680694743403121  0.7323388277584955
  0.2532725198423283  0.0027945211130668  0.7323346427266654
  0.2498726533268165  0.5034977391170983  0.7317560838988342
  0.7710863146249171  0.9761412029475310  0.7349193677730774
  0.7511354947292076  0.5013748920045227  0.7306513501614896
  0.7002576316302376  0.4258542789770436  0.5265934735278500
  0.7319739496297638  0.4629881458030382  0.5020705411544497
  0.6478631698354703  0.5400704039657318  0.5355750677600333
  0.7020301763303834  0.6218548318239582  0.5365604144023419
  0.8356670003940884  0.4932455844443820  0.5537057111776433
  0.7829581131361649  0.5732996944752277  0.5592045866694616
  0.8747741834716337  0.5278024182538644  0.5212226193894102
  0.8142544684246530  0.5589910591583704  0.5006493548758962
  0.8635676274673759  0.4229236989069421  0.5120433738628367
  0.8271509359762848  0.3817634373367326  0.5354057360508715
  0.8422988126621734  0.2858821718725966  0.5103026820752463
  0.7469208365454265  0.2997723596649794  0.5122756728661785
  0.6506246389137478  0.5417851251620133  0.4952702134298829
  0.7073246440048859  0.6226575168655599  0.4957998141296317
  0.6164470949557149  0.6249163614895793  0.5062752832272164
  0.7414740288058183  0.4748125633457879  0.5824402899609024
  0.7255563793344033  0.4123047768503330  0.5612819018510894
  0.6679567635708247  0.4918629458467398  0.5646441118088998
  0.8563798783647554  0.6448487288169622  0.5417477785315701
  0.7975824717373068  0.6801380837942399  0.5213603233922487
  0.8916691247000046  0.6596576977824553  0.5157191492119684
  0.8454170724612503  0.3612290333343302  0.4760479600038376
  0.7968988465218494  0.2766756107315825  0.4749437564355014
  0.6490081101841175  0.3008857501702502  0.4888324173787895
  0.7901791028312060  0.4543216023072433  0.4554618789703067
  0.5387411313177013  0.3682777204529908  0.4761033165689239
  0.6796037294292349  0.5220087001894339  0.4424493251134112
  0.5531314241715485  0.4802054191338928  0.4528374785085286
  0.0203793791053582  0.2740103788033379  0.5625273498911347
  0.0251764123134861  0.7826585647462437  0.5593741865209174
  0.4718918486830510  0.2275922938861382  0.5614232081602253
  0.5144914391727589  0.7814744302901162  0.5621845472161585
  0.2451866197312484  0.5045298001728794  0.5713371036105748
  0.2720506572376610  0.9825058094934617  0.5638782303959969
  0.7718882851967567  0.9854005171654509  0.5613476701705962
 -0.0017088708470207  0.2504183591589317  0.6522618925507674
  0.0027197899173686  0.7593420530438426  0.6666948874634179
  0.5185967896729589  0.2781001261723595  0.6583150576335979
  0.4965841690819426  0.7532821098020439  0.6489242800275288
  0.2294727877051424  0.5144629726239753  0.6549325530633601
  0.2471905923370757  0.0026350965046754  0.6503542513424602
  0.7315699960503124  0.5229362326706610  0.6581562582792276
  0.7541670528410764  0.0029096099125177  0.6508262342770476
  0.5074980779051468  0.2536770136228843  0.7519711678965694
  0.5020845886660039  0.7546961948810500  0.7493748674859790
  0.0085141100584393  0.2549072846929547  0.7529478323424513
  0.0043024520612738  0.7521738031234211  0.7491621543306903
  0.2514221760142043  0.0029867326276362  0.7497897637469338
  0.2489975217852136  0.5039706767900503  0.7492185239276793
  0.7584364194620501 -0.0021142108148431  0.7508291733396730
  0.7494494550242186  0.5044461729477389  0.7481013712902080
  0.7277501171189319  0.3727038790108868  0.4731573163593779
  0.6560521778921267  0.3492841827423885  0.4785995749102738
  0.7349731110991168  0.4350749995600885  0.4599668787553455
  0.5937031709467977  0.3876034259288351  0.4714473990750891
  0.6727380970227894  0.4734440752523594  0.4526270150299889
  0.6017713882668274  0.4501279266931287  0.4584295845991520
  0.7483218780561344  0.4504131577504406  0.5185185409902568
  0.6913257778042646  0.5713554133539650  0.5272740678722828
  0.7797257399037100  0.5168209274455412  0.5528790074541521
  0.8263784717677359  0.5624164748599205  0.5178354046258132
  0.8136948693286148  0.3969734893529710  0.5188043572427234
  0.7981119833984787  0.3253847971024184  0.5062680945126617
  0.6662604288939352  0.5904165688842761  0.5047421488811557
  0.7249079339728876  0.4711899217667343  0.5655804251642143
  0.8426856643578789  0.6411495541643292  0.5246653664826086
  0.7950981042841265  0.3329541002685199  0.4817644479920211
  0.0621074168435016  0.2151915848913639  0.5596104477740028
  0.0458307839275405  0.7134445919006123  0.5617297691478551
  0.5374776769019894  0.1964710034108331  0.5621699969671146
  0.5367451363733016  0.7123969284510343  0.5633521971661981
  0.4578384057468710  0.2984726523499764  0.5637541792938807
  0.4458958779039880  0.8047613733715002  0.5639080250140087
  0.9529374980667020  0.2733747433429708  0.5704025314052521
  0.9582244467231480  0.8085683727113306  0.5627900959878042
  0.2101349872779188  0.4450865997079608  0.5647527937017099
  0.2029243826659500  0.9647477274056740  0.5677462682546495
  0.7024430896372804  0.9758317520149468  0.5669348929171584
  0.3004843332391834  0.0492493233818657  0.5651780712461940
  0.3016349912536427  0.5365524482283880  0.5617670471844880
  0.8064963084257694  0.0491975837228902  0.5603859673542708
  0.0423381806695428  0.2232299426995238  0.6670137444053135
  0.0528364173031410  0.7129212189077505  0.6595500170910154
  0.5422693708337241  0.2094706733083648  0.6590504655548363
  0.5472100361317672  0.7078291669321886  0.6563512551568269
  0.2109868897082647  0.4442134349102391  0.6556368905280373
  0.2022474922894270  0.9513240598801418  0.6576035307536194
  0.7033813983276953  0.4559567157549179  0.6582675240251168
  0.7030221715115813  0.9558500510278317  0.6569449046720457
  0.4495036607279446  0.2997671023865498  0.6567468686318645
  0.4606861747242716  0.8031004352964071  0.6601518355085523
  0.9531080536730352  0.3064811424832628  0.6549622044672709
  0.9625214902119689  0.8043149923013089  0.6549478011442399
  0.2967981553747568  0.0381919200761815  0.6617875552312111
  0.2841692358998882  0.5446241838538629  0.6656597116296404
  0.7920987340064317  0.0469091564497011  0.6634918951067611
  0.8019080719117512  0.5400887891911323  0.6597821703162802
  0.0526713827029444  0.1978212559119268  0.7555515671009960
  0.0482410219614281  0.7027350765205087  0.7578403464430364
  0.5519860041614064  0.1979026414624806  0.7561054027768714
  0.5463036468420075  0.7018533721090660  0.7561027180391375
  0.2031336475386301  0.4582504679888064  0.7587836326951491
  0.2044348083622168  0.9576304516325869  0.7590097754547181
  0.7028128373939495  0.4604121034237812  0.7579895484384361
  0.7071458585999832  0.9640638092051749  0.7620538017073303
  0.4624825357816368  0.2842547499488104  0.7658648173750081
  0.4568870950192307  0.7929209837326751  0.7615382725895758
  0.9636267951680184  0.2809970635267242  0.7676203350987367
  0.9561898534766665  0.7931625854643755  0.7595256233696972
  0.2963081699536840  0.0485700515245297  0.7597679742596340
  0.2940675422893828  0.5500319645899350  0.7589314126793355
  0.7962806496243392  0.0556948197953103  0.7573575068820597
  0.7943084410331709  0.5517571419748313  0.7573907192400454
  0.7615952792610216  0.5251534381177148  0.5290810354370759
  0.4902854263166587  0.0008163100629917  0.5556369834222342
  0.4957927446552043  0.5036062156579493  0.5525367573936988
 -0.0001180841897326  0.0057962537447190  0.5544084649920286
  0.0021567692304207  0.4833609149644386  0.5533256690122970
  0.2598819865683992  0.2551644490287365  0.5535636548663807
  0.2384192161089281  0.7714429069038959  0.5552186591505831
  0.7359668478273836  0.2369222542646844  0.5564397055459535
  0.7227562651216537  0.7799106202364706  0.5545068940652323
  0.0037687598322627  0.0222220064708077  0.6560773992429206
  0.0023913666195142  0.5125446196950395  0.6550787390195368
  0.4992376217372725  0.0139521096178582  0.6577124932596032
  0.5051435960437762  0.4970242884387913  0.6553640491372170
  0.2515384776759064  0.2440841127749603  0.6563190130786740
  0.2572467956786800  0.7409232638496643  0.6564557552703332
  0.7392643018382589  0.2540748535548437  0.6576495119215939
  0.7636352781670162  0.7356443350425365  0.6549563591896010
  0.1424354034173831  0.1124962954019209  0.6040962319102909
  0.1262739373796699  0.6230700164663454  0.6079333675810045
  0.6422961227853254  0.1047595419921813  0.6075787749418029
  0.6361003519069470  0.6144891210582460  0.6078565292952511
  0.3518149014298398  0.4025584359182171  0.6090980668940247
  0.3568115313046210  0.8939611264949603  0.6118579154553460
  0.8540503206585441  0.3919895417518370  0.6097567363308882
  0.8584876227854710  0.8942335155455027  0.6076213758388163
  0.1052643611281519  0.3644424420826308  0.6085540568415448
  0.1016546026729724  0.8626242203656137  0.6116086036335235
  0.5933895106618965  0.3535957938680335  0.6045395684752564
  0.6060327905911744  0.8641665475051884  0.6111716811540086
  0.3911208962173468  0.1491155761432605  0.6105868009442579
  0.3885995197046432  0.6496394177984930  0.6015257669413928
  0.8833879430987409  0.1438276706137046  0.6091500530746815
  0.8860415211234127  0.6477728093103575  0.5948765778731795
 -0.0045074372585769  0.9943247489456397  0.7564387561723666
  0.9938995963639679  0.4831646737117409  0.7556963597107786
  0.4974978076852803  0.9934582624172508  0.7578151178308921
  0.4928034848833780  0.4882803711505472  0.7562314053600013
  0.2567243941583190  0.2559096037505091  0.7570264382102163
  0.2533986843565696  0.7540619580432457  0.7567922157324063
  0.7574324117617962  0.2567367378308286  0.7581170065406140
  0.7467802993020077  0.7647081071246428  0.7551672520787112
  0.1467828079800808  0.1129910126797365  0.7074915853619543
  0.1357573996527416  0.6235241719004659  0.7078020934789025
  0.6540006735295707  0.1064213249277560  0.7086385976198590
  0.6356077142038339  0.6205831500400263  0.7064496774566389
  0.3541363480004067  0.4026024667099826  0.7032549225719666
  0.3633574270750041  0.8985471979888999  0.7056599131830422
  0.8626143585337576  0.3954199499786610  0.7012631475843001
  0.8662279295153225  0.8919544861310437  0.7019741653346062
  0.1116732279815737  0.3624059303630240  0.7066918739814848
  0.1193552709952776  0.8715673508056938  0.7070405698467224
  0.6140283382397900  0.3665173878864856  0.7090462000129120
  0.6099687423944852  0.8619039323291737  0.7022275898149608
  0.3953386434437303  0.1460474467274840  0.7085428217206681
  0.3938707476095017  0.6452030446673230  0.7083698582740613
  0.8943519424814967  0.1470885587622837  0.7090518202640967
  0.8895194875105936  0.6420867114898872  0.7100812133536102
  0.1448407207024085  0.1050010474937940  0.8015878102991588
  0.1472645274355213  0.6038349767531034  0.8014325421198571
  0.6459189165679341  0.1041750120619670  0.8021713011169460
  0.6466538837045138  0.6037024568212861  0.8004010976362907
  0.3461905697532690  0.4055698525327346  0.8046711974572244
  0.3456769862782955  0.9048988035753172  0.8045926550315764
  0.8439959718144369  0.4096802377208988  0.8047189760290532
  0.8521183628299646  0.8983515308266660  0.8044998097092461
  0.1047727965635844  0.3565956043996044  0.8054619671898325
  0.1013048820932817  0.8524954363439531  0.8035966856686868
  0.6021350012988151  0.3555773974190284  0.8049836548335715
  0.5997527518687342  0.8513219523412235  0.8046637657789887
  0.3979087946641921  0.1476318642425292  0.8049710641243498
  0.4021309177711570  0.6534067123965531  0.8029169815909943
  0.8947368169332348  0.1457647868886996  0.8056727036223564
  0.9002834082793929  0.6520806261067233  0.8010115271137966
  0.9958396169896289  0.0066298652991091  0.6058122639683146
  0.9900141087716379  0.5028343188526287  0.6028295362727604
  0.4949485679722959  0.0049565969895520  0.6072896544940493
  0.4980237252725158  0.5019242954544005  0.6028502084995746
  0.2528094175823156  0.2587726541059081  0.6054613114646128
  0.2440888451556273  0.7573773600499526  0.6056510888587845
  0.7374903334330122  0.2530408537079061  0.6057445023030726
  0.7448788016319183  0.7547651228352447  0.6042595209774410
  0.0030052967244884  0.0088756324926893  0.7061363033794807
  0.0025747030083669  0.5062728268691257  0.7050751750901736
  0.5075668056244432  0.0085418975294454  0.7078518494790816
  0.5008836329181681  0.5045379278729887  0.7060166971340484
  0.2550167498999336  0.2549306203639302  0.7070500688317312
  0.2566770300713485  0.7576789946422197  0.7065323223238790
  0.7532470479168871  0.2567371478378663  0.7077359672361604
  0.7537419676351478  0.7540603479917469  0.7046267331273326
  0.0014198472196312  0.0074368002549226  0.8048000063702221
  0.0019364685480355  0.5101391212946571  0.8034315418851302
  0.5022587816255056  0.0066350279847494  0.8060031270262555
  0.5011862980768186  0.5100520931827696  0.8042300545051609
  0.2483246815571497  0.2629735258017423  0.8053229527163451
  0.2482932083486624  0.7622095858431185  0.8050130131371145
  0.7486851423100905  0.2677334044964097  0.8062216543696256
  0.7481818621920245  0.7617251493253737  0.8036462803011858
 
  0.00000000E+00  0.00000000E+00  0.00000000E+00
  0.00000000E+00  0.00000000E+00  0.00000000E+00
  0.00000000E+00  0.00000000E+00  0.00000000E+00
  0.00000000E+00  0.00000000E+00  0.00000000E+00
  0.00000000E+00  0.00000000E+00  0.00000000E+00
  0.00000000E+00  0.00000000E+00  0.00000000E+00
  0.00000000E+00  0.00000000E+00  0.00000000E+00
  0.00000000E+00  0.00000000E+00  0.00000000E+00
  0.00000000E+00  0.00000000E+00  0.00000000E+00
  0.00000000E+00  0.00000000E+00  0.00000000E+00
  0.00000000E+00  0.00000000E+00  0.00000000E+00
  0.00000000E+00  0.00000000E+00  0.00000000E+00
  0.00000000E+00  0.00000000E+00  0.00000000E+00
  0.00000000E+00  0.00000000E+00  0.00000000E+00
  0.00000000E+00  0.00000000E+00  0.00000000E+00
  0.00000000E+00  0.00000000E+00  0.00000000E+00
  0.00000000E+00  0.00000000E+00  0.00000000E+00
  0.00000000E+00  0.00000000E+00  0.00000000E+00
  0.00000000E+00  0.00000000E+00  0.00000000E+00
  0.00000000E+00  0.00000000E+00  0.00000000E+00
  0.00000000E+00  0.00000000E+00  0.00000000E+00
  0.00000000E+00  0.00000000E+00  0.00000000E+00
  0.00000000E+00  0.00000000E+00  0.00000000E+00
  0.00000000E+00  0.00000000E+00  0.00000000E+00
  0.00000000E+00  0.00000000E+00  0.00000000E+00
  0.00000000E+00  0.00000000E+00  0.00000000E+00
  0.00000000E+00  0.00000000E+00  0.00000000E+00
  0.00000000E+00  0.00000000E+00  0.00000000E+00
  0.00000000E+00  0.00000000E+00  0.00000000E+00
  0.00000000E+00  0.00000000E+00  0.00000000E+00
  0.00000000E+00  0.00000000E+00  0.00000000E+00
  0.00000000E+00  0.00000000E+00  0.00000000E+00
  0.00000000E+00  0.00000000E+00  0.00000000E+00
  0.00000000E+00  0.00000000E+00  0.00000000E+00
  0.00000000E+00  0.00000000E+00  0.00000000E+00
  0.00000000E+00  0.00000000E+00  0.00000000E+00
  0.00000000E+00  0.00000000E+00  0.00000000E+00
  0.00000000E+00  0.00000000E+00  0.00000000E+00
  0.00000000E+00  0.00000000E+00  0.00000000E+00
  0.00000000E+00  0.00000000E+00  0.00000000E+00
  0.00000000E+00  0.00000000E+00  0.00000000E+00
  0.00000000E+00  0.00000000E+00  0.00000000E+00
  0.00000000E+00  0.00000000E+00  0.00000000E+00
  0.00000000E+00  0.00000000E+00  0.00000000E+00
  0.00000000E+00  0.00000000E+00  0.00000000E+00
  0.00000000E+00  0.00000000E+00  0.00000000E+00
  0.00000000E+00  0.00000000E+00  0.00000000E+00
  0.00000000E+00  0.00000000E+00  0.00000000E+00
  0.00000000E+00  0.00000000E+00  0.00000000E+00
  0.00000000E+00  0.00000000E+00  0.00000000E+00
  0.00000000E+00  0.00000000E+00  0.00000000E+00
  0.00000000E+00  0.00000000E+00  0.00000000E+00
  0.00000000E+00  0.00000000E+00  0.00000000E+00
  0.00000000E+00  0.00000000E+00  0.00000000E+00
  0.00000000E+00  0.00000000E+00  0.00000000E+00
  0.00000000E+00  0.00000000E+00  0.00000000E+00
  0.00000000E+00  0.00000000E+00  0.00000000E+00
  0.00000000E+00  0.00000000E+00  0.00000000E+00
  0.00000000E+00  0.00000000E+00  0.00000000E+00
  0.00000000E+00  0.00000000E+00  0.00000000E+00
  0.00000000E+00  0.00000000E+00  0.00000000E+00
  0.00000000E+00  0.00000000E+00  0.00000000E+00
  0.00000000E+00  0.00000000E+00  0.00000000E+00
  0.00000000E+00  0.00000000E+00  0.00000000E+00
  0.00000000E+00  0.00000000E+00  0.00000000E+00
  0.00000000E+00  0.00000000E+00  0.00000000E+00
  0.00000000E+00  0.00000000E+00  0.00000000E+00
  0.00000000E+00  0.00000000E+00  0.00000000E+00
  0.00000000E+00  0.00000000E+00  0.00000000E+00
  0.00000000E+00  0.00000000E+00  0.00000000E+00
  0.00000000E+00  0.00000000E+00  0.00000000E+00
  0.00000000E+00  0.00000000E+00  0.00000000E+00
  0.00000000E+00  0.00000000E+00  0.00000000E+00
  0.00000000E+00  0.00000000E+00  0.00000000E+00
  0.00000000E+00  0.00000000E+00  0.00000000E+00
  0.00000000E+00  0.00000000E+00  0.00000000E+00
  0.00000000E+00  0.00000000E+00  0.00000000E+00
  0.00000000E+00  0.00000000E+00  0.00000000E+00
  0.00000000E+00  0.00000000E+00  0.00000000E+00
  0.00000000E+00  0.00000000E+00  0.00000000E+00
  0.00000000E+00  0.00000000E+00  0.00000000E+00
  0.00000000E+00  0.00000000E+00  0.00000000E+00
  0.00000000E+00  0.00000000E+00  0.00000000E+00
  0.00000000E+00  0.00000000E+00  0.00000000E+00
  0.00000000E+00  0.00000000E+00  0.00000000E+00
  0.00000000E+00  0.00000000E+00  0.00000000E+00
  0.00000000E+00  0.00000000E+00  0.00000000E+00
  0.00000000E+00  0.00000000E+00  0.00000000E+00
  0.00000000E+00  0.00000000E+00  0.00000000E+00
  0.00000000E+00  0.00000000E+00  0.00000000E+00
  0.00000000E+00  0.00000000E+00  0.00000000E+00
  0.00000000E+00  0.00000000E+00  0.00000000E+00
  0.00000000E+00  0.00000000E+00  0.00000000E+00
  0.00000000E+00  0.00000000E+00  0.00000000E+00
  0.00000000E+00  0.00000000E+00  0.00000000E+00
  0.00000000E+00  0.00000000E+00  0.00000000E+00
  0.00000000E+00  0.00000000E+00  0.00000000E+00
  0.00000000E+00  0.00000000E+00  0.00000000E+00
  0.00000000E+00  0.00000000E+00  0.00000000E+00
  0.00000000E+00  0.00000000E+00  0.00000000E+00
  0.00000000E+00  0.00000000E+00  0.00000000E+00
  0.00000000E+00  0.00000000E+00  0.00000000E+00
  0.00000000E+00  0.00000000E+00  0.00000000E+00
  0.00000000E+00  0.00000000E+00  0.00000000E+00
  0.00000000E+00  0.00000000E+00  0.00000000E+00
  0.00000000E+00  0.00000000E+00  0.00000000E+00
  0.00000000E+00  0.00000000E+00  0.00000000E+00
  0.00000000E+00  0.00000000E+00  0.00000000E+00
  0.00000000E+00  0.00000000E+00  0.00000000E+00
  0.00000000E+00  0.00000000E+00  0.00000000E+00
  0.00000000E+00  0.00000000E+00  0.00000000E+00
  0.00000000E+00  0.00000000E+00  0.00000000E+00
  0.00000000E+00  0.00000000E+00  0.00000000E+00
  0.00000000E+00  0.00000000E+00  0.00000000E+00
  0.00000000E+00  0.00000000E+00  0.00000000E+00
  0.00000000E+00  0.00000000E+00  0.00000000E+00
  0.00000000E+00  0.00000000E+00  0.00000000E+00
  0.00000000E+00  0.00000000E+00  0.00000000E+00
  0.00000000E+00  0.00000000E+00  0.00000000E+00
  0.00000000E+00  0.00000000E+00  0.00000000E+00
  0.00000000E+00  0.00000000E+00  0.00000000E+00
  0.00000000E+00  0.00000000E+00  0.00000000E+00
  0.00000000E+00  0.00000000E+00  0.00000000E+00
  0.00000000E+00  0.00000000E+00  0.00000000E+00
  0.00000000E+00  0.00000000E+00  0.00000000E+00
  0.00000000E+00  0.00000000E+00  0.00000000E+00
  0.00000000E+00  0.00000000E+00  0.00000000E+00
  0.00000000E+00  0.00000000E+00  0.00000000E+00
  0.00000000E+00  0.00000000E+00  0.00000000E+00
  0.00000000E+00  0.00000000E+00  0.00000000E+00
  0.00000000E+00  0.00000000E+00  0.00000000E+00
  0.00000000E+00  0.00000000E+00  0.00000000E+00
  0.00000000E+00  0.00000000E+00  0.00000000E+00
  0.00000000E+00  0.00000000E+00  0.00000000E+00
  0.00000000E+00  0.00000000E+00  0.00000000E+00
  0.00000000E+00  0.00000000E+00  0.00000000E+00
  0.00000000E+00  0.00000000E+00  0.00000000E+00
  0.00000000E+00  0.00000000E+00  0.00000000E+00
  0.00000000E+00  0.00000000E+00  0.00000000E+00
  0.00000000E+00  0.00000000E+00  0.00000000E+00
  0.00000000E+00  0.00000000E+00  0.00000000E+00
  0.00000000E+00  0.00000000E+00  0.00000000E+00
  0.00000000E+00  0.00000000E+00  0.00000000E+00
  0.00000000E+00  0.00000000E+00  0.00000000E+00
  0.00000000E+00  0.00000000E+00  0.00000000E+00
  0.00000000E+00  0.00000000E+00  0.00000000E+00
  0.00000000E+00  0.00000000E+00  0.00000000E+00
  0.00000000E+00  0.00000000E+00  0.00000000E+00
  0.00000000E+00  0.00000000E+00  0.00000000E+00
  0.00000000E+00  0.00000000E+00  0.00000000E+00
  0.00000000E+00  0.00000000E+00  0.00000000E+00
  0.00000000E+00  0.00000000E+00  0.00000000E+00
  0.00000000E+00  0.00000000E+00  0.00000000E+00
  0.00000000E+00  0.00000000E+00  0.00000000E+00
  0.00000000E+00  0.00000000E+00  0.00000000E+00
  0.00000000E+00  0.00000000E+00  0.00000000E+00
  0.00000000E+00  0.00000000E+00  0.00000000E+00
  0.00000000E+00  0.00000000E+00  0.00000000E+00
  0.00000000E+00  0.00000000E+00  0.00000000E+00
  0.00000000E+00  0.00000000E+00  0.00000000E+00
  0.00000000E+00  0.00000000E+00  0.00000000E+00
  0.00000000E+00  0.00000000E+00  0.00000000E+00
  0.00000000E+00  0.00000000E+00  0.00000000E+00
  0.00000000E+00  0.00000000E+00  0.00000000E+00
  0.00000000E+00  0.00000000E+00  0.00000000E+00
  0.00000000E+00  0.00000000E+00  0.00000000E+00
  0.00000000E+00  0.00000000E+00  0.00000000E+00
  0.00000000E+00  0.00000000E+00  0.00000000E+00
  0.00000000E+00  0.00000000E+00  0.00000000E+00
  0.00000000E+00  0.00000000E+00  0.00000000E+00
  0.00000000E+00  0.00000000E+00  0.00000000E+00
  0.00000000E+00  0.00000000E+00  0.00000000E+00
  0.00000000E+00  0.00000000E+00  0.00000000E+00
  0.00000000E+00  0.00000000E+00  0.00000000E+00
  0.00000000E+00  0.00000000E+00  0.00000000E+00
  0.00000000E+00  0.00000000E+00  0.00000000E+00
  0.00000000E+00  0.00000000E+00  0.00000000E+00
  0.00000000E+00  0.00000000E+00  0.00000000E+00
  0.00000000E+00  0.00000000E+00  0.00000000E+00
  0.00000000E+00  0.00000000E+00  0.00000000E+00
  0.00000000E+00  0.00000000E+00  0.00000000E+00
  0.00000000E+00  0.00000000E+00  0.00000000E+00
  0.00000000E+00  0.00000000E+00  0.00000000E+00
  0.00000000E+00  0.00000000E+00  0.00000000E+00
  0.00000000E+00  0.00000000E+00  0.00000000E+00
  0.00000000E+00  0.00000000E+00  0.00000000E+00
  0.00000000E+00  0.00000000E+00  0.00000000E+00
  0.00000000E+00  0.00000000E+00  0.00000000E+00
  0.00000000E+00  0.00000000E+00  0.00000000E+00
  0.00000000E+00  0.00000000E+00  0.00000000E+00
  0.00000000E+00  0.00000000E+00  0.00000000E+00
  0.00000000E+00  0.00000000E+00  0.00000000E+00
  0.00000000E+00  0.00000000E+00  0.00000000E+00
  0.00000000E+00  0.00000000E+00  0.00000000E+00
  0.00000000E+00  0.00000000E+00  0.00000000E+00
  0.00000000E+00  0.00000000E+00  0.00000000E+00
  0.00000000E+00  0.00000000E+00  0.00000000E+00
  0.00000000E+00  0.00000000E+00  0.00000000E+00
  0.00000000E+00  0.00000000E+00  0.00000000E+00
  0.00000000E+00  0.00000000E+00  0.00000000E+00