H    C    N    I    Pb
1
  18.0608005523681996   0.0000000000000000   0.0000000000000000
  -0.0049186488613486  18.0627994537354013   0.0000000000000000
   0.0000000000000000   0.0000000000000000  62.4874992370604971
H    C    N    I    Pb
143  39  47  72  24  
Direct
  0.4881246819550770  0.3349595978326960  0.5692677477276890  
  0.4208669748074040  0.7801091359449860  0.5786750326170000  
  0.9263147980488650  0.2601791179353980  0.5791695368318200  
  0.9185089304019710  0.8013084221003520  0.5710856399753000  
  0.2972165518421980  0.0863905784526422  0.5717537015103930  
  0.3188820757860920  0.5903894333847430  0.5743108110708530  
  0.7798433209061020  0.0937422667657833  0.5682716570277020  
  0.1126182166628980  0.2272545757124650  0.5595692538954420  
  0.0837151269656662  0.6877179017034410  0.5706274125617230  
  0.5457054984059320  0.1438045068736280  0.5609001262207201  
  0.5737869074562220  0.6785922130802580  0.5568120934017370  
  0.3719402743995760  0.0349526021680527  0.5617900539488460  
  0.3078916824321130  0.5711907196680810  0.5488465187539950  
  0.8626733188334930  0.0504996999919714  0.5606612214574870  
  0.0551808920840269  0.2110678837174080  0.5807175148336620  
  0.9905892283083690  0.6854573953135880  0.5781105792645100  
  0.5831639250568510  0.2306938392298250  0.5669247085916380  
  0.4909704576232780  0.6650979709644070  0.5698439022977290  
  0.2384385797528580  0.4985421202570470  0.5860079557888060  
  0.1766442963733050  0.0167806399393773  0.5747686694203630  
  0.6725051078717650  0.0060129320768434  0.5741308285781120  
  0.3970078606449480  0.3086115847490840  0.5633462710009520  
  0.4580515654075900  0.8615314086202820  0.5687166247706700  
  0.9009137985053550  0.3002292823653730  0.5561781900675959  
  0.9674184113942760  0.8733721422634390  0.5589747601892490  
  0.1768406212739890  0.4247386475743140  0.5642729829573480  
  0.1791671474620040  0.9252061354026800  0.5656889714018311  
  0.6886768375701970  0.9143212709249910  0.5660449365435510  
  0.4266717542341670  0.1877254623246360  0.5571279929993180  
  0.5571870604665230  0.8035797250573400  0.5533330165161630  
  0.0182892915799012  0.2833844836997630  0.5408522406555590  
  0.0754945041653557  0.8047788000225370  0.5561316793800530  
  0.2177907461268820  0.4660665439091850  0.5423861411321640  
  0.3010309329656940  0.9302662414093710  0.5558857433003210  
  0.8089527231999800  0.9357161857833050  0.5570683914475060  
  0.4103154368840630  0.2712826995713010  0.6672214339335970  
  0.4585009744917920  0.8059578708634690  0.6768284151347010  
  0.9464126003517730  0.3240008227849520  0.6728477937533049  
  0.9822665236124950  0.7833888698746060  0.6805615655820840  
  0.3057055402545790  0.0410683252548097  0.6770589460791290  
  0.3027268915195410  0.5428284528965700  0.6778670013521940  
  0.7907337197751930  0.0530624750073360  0.6796683922462420  
  0.8380119843926390  0.4996269121457470  0.6692873956204271  
  0.0759511199030586  0.1761245365479860  0.6589831106876770  
  0.0666397211111558  0.6927107101265459  0.6496349310582650  
  0.5925801063052450  0.1936601896012780  0.6566844958481100  
  0.5769471726703190  0.6741974573745650  0.6480926346270790  
  0.1785948608174240  0.4200299317879360  0.6482465376652650  
  0.1698353972276960  0.9293752950182390  0.6478066948850990  
  0.6456580926181770  0.4637868757098370  0.6563848451686560  
  0.6745485857396640  0.9265379479779360  0.6486423684857330  
  0.0498058667099525  0.2300720629250660  0.6804820801356620  
  0.0766719274099890  0.6952189933789620  0.6755411455304310  
  0.5114809558915820  0.1743882210859900  0.6702288096000379  
  0.5578039736383720  0.7021012518407640  0.6742106501114660  
  0.2097248265584830  0.4360833795804740  0.6742209079745189  
  0.2004010016859860  0.9444930207674110  0.6738823799522010  
  0.7181172878105090  0.4292396206971850  0.6716005683726690  
  0.6906281910343730  0.9528060215827380  0.6750784668018660  
  0.4312745545095370  0.3467014385393760  0.6516402529160900  
  0.4222256947247280  0.8336512657951470  0.6522899764773140  
  0.9198221080438240  0.3289499655454320  0.6460524454600330  
  0.9177000706080940  0.8296970789127380  0.6537443842444640  
  0.3317185926118620  0.0815858357056547  0.6529922741170850  
  0.3205888887674980  0.5908142483763830  0.6544326907248120  
  0.8344728899527269  0.0797845820510622  0.6562475291978880  
  0.8400025129159410  0.5733944571403090  0.6515542469751739  
  0.9969301373078480  0.2350360943525150  0.6352987476181480  
  0.9673377353622939  0.7769011382835620  0.6360108871293800  
  0.5470918741873210  0.3026193378938700  0.6428924043195310  
  0.4933691116823490  0.7534016883041980  0.6325600803952680  
  0.2488523860359510  0.0148768952228335  0.6327802580119720  
  0.2461995473653740  0.5154407522223750  0.6336067218263181  
  0.7638387270540760  0.0034672188300433  0.6346626612636970  
  0.7177630104347770  0.5560574610152430  0.6412062912727819  
  0.4501435406391860  0.2872047713857290  0.7772160090959190  
  0.4480088926076960  0.7946660818244670  0.7759356780382530  
  0.9542814280207150  0.2861254565545600  0.7784405340871760  
  0.9470718295813060  0.7993607718719991  0.7736482136883110  
  0.3064924981618310  0.0495610400227965  0.7758379167251630  
  0.2960788266966950  0.5558471743052320  0.7760026712808120  
  0.8031783296724010  0.0605658745894794  0.7747651307498210  
  0.8018284850955000  0.5545848030832160  0.7741168991125310  
  0.0837661241654427  0.1741106197280880  0.7478162126457910  
  0.0823887453115936  0.6754953263112010  0.7489993958869530  
  0.5831670597269190  0.1743758813631390  0.7482176709129830  
  0.5807785614488730  0.6754235403943680  0.7487033619477820  
  0.1726330352561760  0.4225005244079210  0.7505202291855390  
  0.1727654040102580  0.9270718490961480  0.7500779201715850  
  0.6714278952939901  0.4270106729804700  0.7488036512324470  
  0.6760907692304490  0.9231642960184420  0.7525834561273350  
  0.0553066998433248  0.1894567235786770  0.7740698823789141  
  0.0483712242169630  0.7003340074047630  0.7740859459649840  
  0.5484699085025480  0.1882127525232300  0.7738955379298410  
  0.5479662745622920  0.6952607541246640  0.7743084442733450  
  0.1971499176978530  0.4549931698642670  0.7757478766079440  
  0.2057889034030230  0.9505630651469610  0.7753766719767250  
  0.7007020942572340  0.4554953588003560  0.7741212009658720  
  0.7044683189411570  0.9597146753068730  0.7769655590303300  
  0.4296637622907370  0.3356549208681450  0.7539883021008330  
  0.4235369856557580  0.8335199851176121  0.7514996690182340  
  0.9274951210819770  0.3318003220140970  0.7552695127979900  
  0.9227225905827310  0.8313745704718830  0.7483453307787350  
  0.3317238177748780  0.0839186082720258  0.7509212154661860  
  0.3293735724933710  0.5816259358046680  0.7509833785091350  
  0.8308750424648350  0.0837681265866647  0.7489518920358600  
  0.8307303226352311  0.5833140773566630  0.7488384766777541  
  0.0062182419038540  0.2630050362811940  0.7335260234595830  
  0.0058594680223186  0.7557524088534689  0.7306932833932200  
  0.5110649072380740  0.2666156028494500  0.7331409830631120  
  0.5053558156430790  0.7608525143809490  0.7321114357751241  
  0.2496224119357330  0.0088555215367873  0.7323918812512700  
  0.2544931416126290  0.4991508013828270  0.7326381579540280  
  0.7535127523450840  0.9988499461068160  0.7326589338202530  
  0.7509325832052630  0.5052855880305570  0.7308084051135449  
  0.7003812367305760  0.4223171328777840  0.5281464592258220  
  0.7212895762612910  0.4593975504942530  0.5026472409099260  
  0.6455309734919410  0.5349425969959720  0.5393447223286300  
  0.6941565027111249  0.6198888065288080  0.5368270337821910  
  0.8410189578386180  0.5007419793914381  0.5506434927246310  
  0.7841224608119010  0.5765491356301340  0.5576066514813700  
  0.8627573749969930  0.5309713163992380  0.5157824032740490  
  0.7920086883251330  0.5628569549990800  0.4985114495933470  
  0.8563835535035590  0.4268932805399620  0.5079291428845090  
  0.8354132768409550  0.3938124338849230  0.5337152949474560  
  0.8417638795726901  0.2861761420489700  0.5132607779012990  
  0.7468380164270479  0.3006173550344040  0.5152612181528610  
  0.6270165346617800  0.5281056664562001  0.4997386934669190  
  0.6782946692722360  0.6118856108640850  0.4962468452593340  
  0.5941248206054111  0.6115299186207040  0.5107737908960370  
  0.7606207641761410  0.4745539695348850  0.5820207499180881  
  0.7395026137573870  0.4119013945662850  0.5613502274101110  
  0.6791816518454030  0.4875782874500730  0.5670258638571570  
  0.8043173181402190  0.6626661860395990  0.5358850055473140  
  0.8167992542587230  0.6838626887015090  0.5096827221865280  
  0.8893424540543240  0.6487067939245770  0.5246281782097210  
  0.8429978259433430  0.3394314119309280  0.4763612719555600  
  0.7872345975522490  0.2599538178881980  0.4791963490434100  
  0.6460937112485580  0.2898689679180480  0.4896150811284010  
  0.7924966417753910  0.4412171056666550  0.4581810643739550  
  0.5390486100496860  0.3639398195984830  0.4777601600329980  
  0.6853883819371140  0.5156812936942911  0.4461700650784500  
  0.5582164226817130  0.4778003666616860  0.4561618410540330  
  0.0069847038852689  0.2640827978718520  0.5564875423641510  
  0.0258955955977545  0.7792492080051550  0.5628612903091080  
  0.4709345405684820  0.2262168444245240  0.5612763395388980  
  0.5151820902127771  0.7709482697814219  0.5612408752936500  
  0.2511377858781910  0.5054851052981650  0.5693464466898450  
  0.2751099232966640  0.9798302501711140  0.5624716353676150  
  0.7754008628727370  0.9820343012084810  0.5625118979003410  
  0.9978278334831090  0.2521559437505460  0.6519821373009190  
  0.9953582639125370  0.7606108062043470  0.6653156361889910  
  0.5125920235648380  0.2705535923107600  0.6534131618949570  
  0.4993351381198980  0.7536797308079300  0.6499293276955340  
  0.2505651451698070  0.5047438125564180  0.6507118817839980  
  0.2506315189673510  0.0058035101647937  0.6500222128233980  
  0.7422770047521570  0.5191633676352890  0.6529572196668481  
  0.7544296206937460  0.0034484081115248  0.6518998305314680  
  0.5058862028462450  0.2548143612687730  0.7501779761861820  
  0.5021566233946400  0.7544775619066820  0.7494371352203890  
  0.0052724535016673  0.2528459702477760  0.7507218389105760  
  0.0024919388616461  0.7533062878964840  0.7480930592725210  
  0.2524309533482390  0.0052141327061025  0.7497906200851220  
  0.2511875960437380  0.5018504232828610  0.7500554709337099  
  0.7534796627152880  0.0033476066141479  0.7500638350015360  
  0.7510616907108441  0.5051578990774130  0.7482760257811820  
  0.7267830891444070  0.3606052800405280  0.4747655801514950  
  0.6547794514930600  0.3392390913436130  0.4799690604873930  
  0.7366959467333970  0.4241065305351580  0.4623730388585350  
  0.5945026772993670  0.3809888737547730  0.4733504821422910  
  0.6764880557934611  0.4660409683372960  0.4556497954092470  
  0.6052166542954710  0.4447961932403370  0.4612128393369180  
  0.7436736388092710  0.4492467785604940  0.5186193499790670  
  0.6823206849255310  0.5669636183432510  0.5288710277383230  
  0.7832931324501370  0.5196972430911930  0.5515083313987660  
  0.8131270497926210  0.5654042786851610  0.5149180849285970  
  0.8126771342054681  0.4004868246555830  0.5175040985309650  
  0.7972308187839680  0.3234153764652890  0.5080720353771661  
  0.6446420447916180  0.5795666471095920  0.5075022194011880  
  0.7372669819980791  0.4705306836456400  0.5658756861789590  
  0.8316414336804731  0.6441594423065040  0.5216590452703010  
  0.7916729817368250  0.3188233956332690  0.4836160000223080  
  0.0605985081579264  0.2307132729254990  0.5659905534587970  
  0.0325031672821176  0.7112307055198051  0.5698180897116349  
  0.5382959705909610  0.1995798169196290  0.5626263251934970  
  0.5251914812199810  0.6996345703665851  0.5618113499639920  
  0.4518474877094010  0.2955828739011690  0.5640296473448000  
  0.4588659901924120  0.8055714862196410  0.5693525835803060  
  0.9407997537492609  0.2759356885377750  0.5643716161430490  
  0.9643731914881720  0.8181850880091590  0.5629947001668220  
  0.2106106656350520  0.4633395998647480  0.5579667841501020  
  0.2045583873432700  0.9751193868692830  0.5671371203901890  
  0.7061142528822790  0.9679472614076819  0.5670330637061820  
  0.3161474821429310  0.0390627128106874  0.5647826021578199  
  0.2943427024590870  0.5596081201298870  0.5634860009873320  
  0.8071434125998470  0.0469601022681952  0.5636590652891530  
  0.0437361655140737  0.2174377770118750  0.6647589070303980  
  0.0497900672316001  0.7137658554154750  0.6632077647163310  
  0.5397315667746300  0.2080764880605400  0.6604248740837340  
  0.5471840173220580  0.7070674209168000  0.6581969029302630  
  0.2108179618784040  0.4502052051577500  0.6584228574858670  
  0.2043738641010520  0.9570185851331270  0.6579757779007200  
  0.7004408467830670  0.4657878425386270  0.6604289484465320  
  0.7038850326313300  0.9580740960707480  0.6592563045557750  
  0.4469430708488870  0.2972599968939740  0.6577791257605680  
  0.4575820073355280  0.8003460858032140  0.6605955835209190  
  0.9521012856220940  0.3048789027851520  0.6575668118635180  
  0.9597055446764130  0.7947567369722800  0.6507703033591830  
  0.2985642544630210  0.0452519170035410  0.6609404271677159  
  0.2947093602108520  0.5478907020520420  0.6618074652548710  
  0.7949517895008120  0.0485928299393165  0.6634682374718121  
  0.8112496324487910  0.5311853409823351  0.6583129979326710  
  0.0506355509320738  0.2023421234832590  0.7581916103667909  
  0.0469179293197715  0.7067887126612989  0.7578620988063730  
  0.5481239935163720  0.2023842146736940  0.7580777100636630  
  0.5460160884890300  0.7051997138262720  0.7582286743238090  
  0.2043047848429410  0.4570756383244320  0.7595376319661340  
  0.2077967871313540  0.9580020281485440  0.7591864148667890  
  0.7050124773253120  0.4597464569652260  0.7578720089814130  
  0.7085026877516840  0.9596521075329680  0.7606705837888520  
  0.4585408067726610  0.2945053242162250  0.7612175762163590  
  0.4551864514354370  0.7968509733806360  0.7597579934828460  
  0.9593652388425560  0.2924178399411380  0.7622895091281870  
  0.9545322322935860  0.7971906864611760  0.7574572032063061  
  0.2998738155984920  0.0486052689939752  0.7596127254904440  
  0.2948104749826510  0.5492423093931290  0.7597793625290270  
  0.7985248580696430  0.0520598827633465  0.7586554197647140  
  0.7972490661178010  0.5503822486459550  0.7578738518289330  
  0.7556624421211060  0.5253273879571330  0.5284365934533360  
  0.5058436811843120  0.9985594507321920  0.5556593650075460  
  0.4908914868047150  0.5029829749115819  0.5528241164046930  
  0.0006679732052421  0.0099401656011807  0.5537279637558210  
  0.0033821736930828  0.4873718978986640  0.5529879622614010  
  0.2558414224870200  0.2464788434164410  0.5545380976113991  
  0.2402713903247350  0.7678231418141520  0.5553581949725620  
  0.7389223448355950  0.2348098100250270  0.5566810252778120  
  0.7205580755611350  0.7763195862314070  0.5545419086528099  
  0.9997368465211069  0.0104435061670070  0.6558092882829970  
  0.0093428599017894  0.5123170012446080  0.6555349559654610  
  0.5008683417140209  0.0084259223863510  0.6577829386884270  
  0.5038217230337890  0.4969320781131850  0.6547757935289000  
  0.2480619869176780  0.2466110509017700  0.6565819149073210  
  0.2514215369866480  0.7502250076961580  0.6566276120628030  
  0.7384341164950410  0.2559376425826510  0.6569080346000060  
  0.7569854788164840  0.7421750432935960  0.6553305086384850  
  0.1405820766857430  0.1140824140981210  0.6067822552647200  
  0.1400240934001310  0.6141841334155840  0.6082729076791700  
  0.6467037276372040  0.1055007118524690  0.6081488979455270  
  0.6336576165938440  0.6181636341417330  0.6068286140934070  
  0.3569306187007480  0.3978170254399160  0.6082723899060530  
  0.3616895740314230  0.8927902162735170  0.6119371944864200  
  0.8647380517205761  0.3864663338530620  0.6102107200421830  
  0.8589096748846670  0.8940562155610070  0.6074800173999190  
  0.1157982335269910  0.3679507199089900  0.6082741915918169  
  0.1064802336706890  0.8661387196115440  0.6106372466560430  
  0.6009007470116920  0.3571062545801260  0.6017366977891480  
  0.6109132867232000  0.8665433056859750  0.6127646011899180  
  0.3909383597524790  0.1448463593901430  0.6104190800265400  
  0.3893907259451920  0.6466325514244760  0.6067631280914360  
  0.8916769463956929  0.1492118864162300  0.6088702633975180  
  0.8885614173356829  0.6443131777751430  0.6045869389684770  
  0.0017187219940193  0.9988708200410650  0.7562390714254690  
  0.9983126456804861  0.4941509712813870  0.7560623568747280  
  0.5032340339860411  0.9975175419113520  0.7574861591128330  
  0.4956098269045320  0.4975292522152940  0.7558776644778090  
  0.2556388824538480  0.2531839874663230  0.7568798450472130  
  0.2536804379841100  0.7534294659952880  0.7568571390911770  
  0.7552411035709440  0.2556587505725990  0.7569955325944330  
  0.7487682098921650  0.7553272632022510  0.7557195729675030  
  0.1431620299289570  0.1155980726572660  0.7078794357611220  
  0.1427662654277690  0.6171173901015951  0.7087103979966600  
  0.6469202107318830  0.1120004380000420  0.7077089381087190  
  0.6344931528351020  0.6212319049970380  0.7071618279323520  
  0.3555217673694380  0.4005589792018920  0.7045243897855030  
  0.3629013284552430  0.8976955252952460  0.7067923737454480  
  0.8623705040840390  0.3967542069875650  0.7033386815442390  
  0.8646893088038990  0.8927324928566720  0.7052129952633430  
  0.1124034757013080  0.3642734669204350  0.7066096899216010  
  0.1179113489317140  0.8716616432761740  0.7070604417263940  
  0.6149916911339800  0.3687904089181490  0.7080329784388401  
  0.6125176586722600  0.8648797190270450  0.7051807547504080  
  0.3966657478082350  0.1484423776430230  0.7063795365079570  
  0.3927063551985840  0.6458817254048290  0.7067278069594570  
  0.8925918648446139  0.1471066092431300  0.7080906248587460  
  0.8902485801699420  0.6422272110092780  0.7081486711984210  
  0.1493283558576310  0.1041898850541330  0.8028654323003130  
  0.1488765495306860  0.6040861286384240  0.8021941803879070  
  0.6505525675236550  0.1038052451163110  0.8032903325196080  
  0.6496709226440071  0.6028176490512080  0.8016858687492480  
  0.3498647672089590  0.4036363234226430  0.8042618755119630  
  0.3500888918772550  0.9038512875596070  0.8039233092713460  
  0.8480949850885831  0.4055625963862970  0.8040361664183360  
  0.8529848849254180  0.9001919648416590  0.8025529102791900  
  0.1039042088452210  0.3537926790592090  0.8039071165285920  
  0.1029671385454640  0.8528929256758490  0.8027275799436590  
  0.6030924387543870  0.3544606526065540  0.8032632672925391  
  0.6030290850201000  0.8527763282182970  0.8040468515735080  
  0.4044112423129470  0.1523909744887070  0.8035058951543580  
  0.4035347987440430  0.6535592654251300  0.8030595937653440  
  0.9014289500200020  0.1509906382322820  0.8037888895563050  
  0.9027737976439340  0.6529775992747020  0.8015889133039870  
  0.9962977252004840  0.0066929139136988  0.6050611542530400  
  0.9976065563447870  0.5003769710138281  0.6032734741393950  
  0.5000457192250970  0.0059554462708839  0.6079682347871490  
  0.4999677231663940  0.5015450722151740  0.6029162381833570  
  0.2535496197446980  0.2558202796377550  0.6058611611898350  
  0.2438864642344590  0.7584395206312410  0.6057309378441940  
  0.7442982897020179  0.2535200378728970  0.6062012520696390  
  0.7442689363041211  0.7561111399265410  0.6048244999831570  
  0.0017618009706587  0.0080064860457670  0.7059262168409099  
  0.0035617962719924  0.5081969322612050  0.7054053468745120  
  0.5049869509265760  0.0056216893012947  0.7075397086544090  
  0.5008140275935790  0.5051484101960980  0.7055600927950419  
  0.2531012804516170  0.2561695460350580  0.7067208133560759  
  0.2542086445630560  0.7575794145028319  0.7063894366572320  
  0.7507673240367700  0.2557208328841110  0.7067384542056520  
  0.7532751423913900  0.7540831917314160  0.7052072455537070  
  0.0038053209534294  0.0080948009518990  0.8044458671662240  
  0.0013765906734912  0.5096688369272980  0.8041278445802920  
  0.5041984771185080  0.0084949509452522  0.8057018112279950  
  0.5030035406998840  0.5092815405914750  0.8041673121856850  
  0.2496067742183100  0.2614133986892630  0.8051852580247970  
  0.2496208651642250  0.7598806726965810  0.8050022165292740  
  0.7491008287898701  0.2617738051360420  0.8051772792645330  
  0.7498386940216299  0.7597032789486871  0.8039635767643480  
