H    C    N    I    Pb                  
    1.000000000000000     
    18.0608005523681996    0.0000000000000000    0.0000000000000000
    -0.0049186488613486   18.0627994537354013    0.0000000000000000
     0.0000000000000000    0.0000000000000000   62.4874992370604971
   H    C    N    I    Pb
   143    39    47    72    24
Direct
  0.4891105274678906  0.3429961092806924  0.5635279411585991
  0.4055547748878522  0.7795785133610306  0.5673813054478947
  0.9300792950421043  0.2212952907480519  0.5782838299218419
  0.9157178107287438  0.7764040512541435  0.5702750340189172
  0.2735571308402715  0.0954259149536868  0.5673935529156214
  0.3154585900071615  0.6027519068914976  0.5629476952415013
  0.7832746973370531  0.0974818758785851  0.5638526508412106
  0.1168021679199719  0.2300746041493572  0.5564567473912539
  0.1019005415385811  0.7075484750518392  0.5620929031068055
  0.5465683395226252  0.1474867026128458  0.5630163288307622
  0.5910951505608122  0.7009136876475158  0.5640910427071290
  0.3575785810902593  0.0510827061353347  0.5610283823546187
  0.2288753657979622  0.6022878336168561  0.5510873941337964
  0.8632141943707490  0.0466126105706377  0.5570258803722533
  0.0545990066250370  0.1684100490429929  0.5680234761506102
  0.0135114277822149  0.6779691669756140  0.5704588005070901
  0.5860461310102596  0.2356432494484631  0.5647815123048885
  0.4993913329089058  0.6746859615354447  0.5696496073511761
  0.3057599558323290  0.4862250758138444  0.5769904283598601
  0.1664188825407333  0.0061310453143690  0.5743464120885231
  0.6730258440238296  0.0165114257378680  0.5741794481679015
  0.3976315256417376  0.3119514052733396  0.5612054311479066
  0.4442386696120384  0.8665473761432594  0.5613822359597981
  0.9173149933846416  0.3141312579232249  0.5723356784690220
  0.9458108187219844  0.8642708511887983  0.5614771786665964
  0.1980027977956393  0.4189724626922932  0.5746392910062296
  0.1861922035260641  0.9126084378462025  0.5688362095468940
  0.6832080620970932  0.9220799950541200  0.5680269836260998
  0.4272179027279643  0.1896077317754870  0.5603729442706026
  0.5622450661659054  0.8215961048554057  0.5575349898900572
  0.0316387282785790  0.3274909571107080  0.5561035257960717
  0.0634735221085491  0.8250926442252740  0.5542335230578428
  0.1515830645066550  0.4829365153772527  0.5589620710793284
  0.3069121787943812  0.9348949788921692  0.5600895897056353
  0.8026615153910833  0.9339972609349052  0.5569238097274437
  0.4074820552101765  0.2615994946265678  0.6571351349078144
  0.4805445813861840  0.8166842472102895  0.6745503813099309
  0.9452936823917122  0.3251289175995353  0.6699775811100384
  0.9969194828736988  0.7565557042955928  0.6838004292250917
  0.3087492656996778  0.0238695755659790  0.6770545482486577
  0.3163461854613054  0.5047819902614584  0.6760258097861140
  0.7866547722959941  0.0474842325300458  0.6786867811585220
  0.8441577339106587  0.5031623108687555  0.6591352875176206
  0.0769879838490403  0.1740478875035494  0.6630872099321971
  0.0644288115532150  0.7105857353391954  0.6420961821358424
  0.6008781491139572  0.1973155941830235  0.6596903876162897
  0.5699094901321028  0.6684515695960082  0.6446021496747697
  0.1643113354171484  0.4291992905189919  0.6448266035995482
  0.1672133138282895  0.9252536252821483  0.6467218612349316
  0.6479492888238870  0.4505097264202703  0.6572021689893963
  0.6743224181274892  0.9251048553626945  0.6452627612916323
  0.0455704871743718  0.2364560859984648  0.6821689457680716
  0.0825955708749492  0.6797299849277341  0.6680743048215075
  0.5116038300772020  0.1600723847795796  0.6586634005528722
  0.5693822843871662  0.7083526788774812  0.6700903533424906
  0.2337348420785209  0.4022543483514705  0.6624549611940483
  0.2023131109239290  0.9320029514641690  0.6726669463622055
  0.7356154523337934  0.4090269312716170  0.6590339868568166
  0.6885510848778482  0.9472744158237106  0.6721131030876238
  0.4420000983608645  0.3519500887421024  0.6572024634638591
  0.4232735312800701  0.8342177393424023  0.6525905478518468
  0.9263478314568935  0.3238543873051993  0.6425756425112300
  0.9262607473484189  0.8380503051958528  0.6642649332934135
  0.3293858956228662  0.0763621061793847  0.6543924219498585
  0.2975530468916084  0.5935368704812163  0.6656382714114417
  0.8317575281034483  0.0793139628843277  0.6558869925478622
  0.8159257990632302  0.5956755197800880  0.6571577936821438
  0.0066336120892055  0.2262274947956290  0.6357297013708793
  0.9652385537750727  0.8125880667328791  0.6397254805056026
  0.5633847788983871  0.3178762019708501  0.6588447724597332
  0.4751990163329173  0.7419231113623219  0.6318490618372862
  0.2422683185012550  0.0178914457599782  0.6332523933823784
  0.1990400657758974  0.5528670773728260  0.6451340140106869
  0.7640022357271052  0.0055438942046821  0.6328243071710044
  0.6926275635449853  0.5689189430625786  0.6556274015412523
  0.4572231887389000  0.2569257421759790  0.7811168797694951
  0.4526516850003545  0.7708188251468879  0.7790798314916543
  0.9550473687961980  0.2493304928685819  0.7824502164518747
  0.9491049849152675  0.7886938647963403  0.7753706960543471
  0.2939685168976336  0.0555579544810513  0.7759786923434241
  0.3004287495562216  0.5505317915350051  0.7748753188676579
  0.7806323008315623  0.0895969352139748  0.7703533133802325
  0.7962722359934679  0.5604183379272402  0.7721575432294411
  0.0850300904763496  0.1836124444775192  0.7424831021758511
  0.0826602366252758  0.6751858435912020  0.7464717389673609
  0.5847556803733104  0.1755013259077305  0.7429498473876471
  0.5767861600432215  0.6751519313595924  0.7428286864010674
  0.1695107676071634  0.4256058871140001  0.7489812396470085
  0.1725020221206912  0.9246806596431534  0.7485101805244795
  0.6704113370167130  0.4245668927804623  0.7486171153176485
  0.6895731668841977  0.9136523716367558  0.7608902242480159
  0.0586273368325090  0.1685999025678739  0.7689406279769483
  0.0508001428124738  0.6912499888152870  0.7724464432878635
  0.5606785419718077  0.1716097920987490  0.7699430641829570
  0.5506769046852188  0.6770133202498049  0.7697061128763566
  0.2001530791274320  0.4514334098667835  0.7743379078915779
  0.1934206103922430  0.9558961100224511  0.7742197076419020
  0.6957280188952444  0.4616600193102533  0.7734044644808393
  0.6864699829062568  0.9915029193568776  0.7776531123839880
  0.4313725862881428  0.3240674427462111  0.7625463330164555
  0.4293597387157319  0.8338073178886808  0.7590225108145758
  0.9335917399536801  0.3261091895521504  0.7666171479532862
  0.9250965966603453  0.8321900148900702  0.7515298258382581
  0.3307078970565648  0.0817076636824538  0.7513566574142162
  0.3284490950272171  0.5824908652673204  0.7498303112431028
  0.8344716601579401  0.0776324810239079  0.7475034526113054
  0.8285933890726591  0.5819117075891137  0.7465670464072216
  0.0110591401739812  0.2884196380439871  0.7387384726512291
  0.0065680739060596  0.7625080429664258  0.7311037205983345
  0.5068307952481909  0.2747571371068425  0.7356823197889140
  0.5035263141621018  0.7753062828489000  0.7335291433146865
  0.2575729230095352  0.0007600829316275  0.7319967607439166
  0.2481082599705126  0.5063106479670214  0.7312856765268737
  0.7812347924689413  0.9640188098307448  0.7391326985139137
  0.7525245075258860  0.4974793427927321  0.7296358962652627
  0.7032766928023726  0.4284813824500375  0.5259977415669365
  0.7380095935188230  0.4694125204500164  0.5023033816874223
  0.6530409989632006  0.5416163435037030  0.5362910782547350
  0.7089108142574637  0.6216079580165630  0.5394556205274650
  0.8377587504168967  0.4855750803941866  0.5550292663179008
  0.7870052971118207  0.5659697259440141  0.5616559108957115
  0.8810361838744893  0.5261980577442125  0.5236869293096761
  0.8235965785173788  0.5611691987456072  0.5029807104374302
  0.8666828156796519  0.4229599411080348  0.5116361723656024
  0.8302628792689299  0.3817738328443573  0.5350509766375787
  0.8429214344317415  0.2869537976462973  0.5092891570100928
  0.7479486886160964  0.3015516805486271  0.5127333645862662
  0.6629969408208025  0.5534012056727022  0.4958815664083461
  0.7178467453456743  0.6350523447836413  0.4993161920672923
  0.6254499987207428  0.6319319413072604  0.5086425392346893
  0.7395447212241913  0.4648347172789523  0.5827925339458030
  0.7255113340067513  0.4065622534615443  0.5605024960190986
  0.6688292771366916  0.4866790915266515  0.5644445392988879
  0.8076685585146899  0.6804335156398785  0.5246915866261080
  0.9016068769947475  0.6576805483700413  0.5196977124428664
  0.8631285902827401  0.6421681017163904  0.5452924659871793
  0.8390355922953349  0.3624441509234388  0.4749442691282729
  0.7895191554678135  0.2787094908959002  0.4747743627316418
  0.6458120314420746  0.3056994531401599  0.4922139883307538
  0.7798755986604540  0.4538859561406858  0.4546497268627376
  0.5331464117263370  0.3734175853145462  0.4812048169272404
  0.6665594326187194  0.5210186075335843  0.4430967746280116
  0.5426105742139934  0.4814986165426592  0.4565373094098997
  0.0153628494031006  0.2731315427386498  0.5622963151961121
  0.0229533730440400  0.7849270198608957  0.5600699344018368
  0.4721424703595902  0.2298272935831959  0.5616528816248357
  0.5174949872084891  0.7831692406218906  0.5614448417930540
  0.2599971394745810  0.5079273772268331  0.5673559970860494
  0.2715121793745972  0.9818134014226906  0.5641361060525458
  0.7724088591572530  0.9839823230112225  0.5614235842204705
  0.0024518107746498  0.2483350529866375  0.6519470084599863
  0.0039860266645536  0.7584746244594617  0.6664595796184231
  0.5213336891943355  0.2745067325065405  0.6584863279855340
  0.4950695784594732  0.7502607317456292  0.6481858358543644
  0.2298859854701765  0.5131585658057359  0.6548949840899260
  0.2478710965157704  0.0017245305337143  0.6500152889601181
  0.7318505987095010  0.5231798114708686  0.6569291324395459
  0.7533526832570718  0.0023401889206615  0.6499907412820615
  0.5070084190537427  0.2503731191195006  0.7516709879577654
  0.5021253032544750  0.7546601960804032  0.7499514313714799
  0.0085865514246512  0.2562680040233755  0.7535400044893232
  0.0034440068574025  0.7532677066624770  0.7483280005636055
  0.2519196631803584  0.0029419010610204  0.7493691881015178
  0.2488917045203217  0.5042419273903113  0.7487383843745780
  0.7614215676252963  0.9948680478241012  0.7530628523190221
  0.7497173598953888  0.5029261102403441  0.7470233754882069
  0.7210561099914190  0.3751825960267673  0.4743009828381232
  0.6507661536322852  0.3530517714108451  0.4814664103681572
  0.7255954407122822  0.4360669505400601  0.4604128055057247
  0.5871088137309410  0.3911397494048393  0.4752553531526193
  0.6618577396560154  0.4740358860416278  0.4539816320118973
  0.5924133644898228  0.4518964640989883  0.4614703385837500
  0.7526012312133326  0.4530480470330003  0.5186178918190272
  0.6982341620666651  0.5736824483494430  0.5290711926455086
  0.7827071178627196  0.5111337454347007  0.5542362342547151
  0.8338209670642095  0.5624542928222670  0.5203163181369369
  0.8165785949090146  0.3978872493610344  0.5185346720534671
  0.7982652974666307  0.3268637542171053  0.5060358216794454
  0.6762522060307868  0.5990806731945507  0.5068113795968292
  0.7252862983034006  0.4646204669742492  0.5657075733954066
  0.8512140981825140  0.6399434737961807  0.5280724758941227
  0.7898375928681671  0.3349182771327798  0.4816480853585695
  0.0631277838814692  0.2185109713970459  0.5608097356991707
  0.0461862327825251  0.7168277326389968  0.5631518127027145
  0.5397737616790548  0.2036408619239674  0.5627349916303287
  0.5359669768400813  0.7134723587049290  0.5640685242461317
  0.4528795522610852  0.2999029329651086  0.5617236912346427
  0.4501757876570322  0.8103599017491263  0.5627438673907800
  0.9480624615051780  0.2674586250883486  0.5701360400434546
  0.9549777911534493  0.8085277540041558  0.5629936595271668
  0.2008490793066502  0.4663869736263584  0.5657742141853058
  0.2020533458417770  0.9668554524180899  0.5685149248026611
  0.7029357333888159  0.9749894016423279  0.5670688753766417
  0.3016087574857682  0.0479600444970181  0.5637331581734633
  0.2697363087622052  0.5732689996160550  0.5584574347826692
  0.8075838055268539  0.0474302563779580  0.5604113060987480
  0.0444644502416379  0.2181818365461776  0.6667210243843605
  0.0530952275648882  0.7134350661811439  0.6580825763982212
  0.5449782548275819  0.2059101226434832  0.6590809686527058
  0.5476027016235900  0.7058279944867631  0.6550286038194605
  0.2073020072732189  0.4440166188158391  0.6545302726286111
  0.2038579759457150  0.9491930130995643  0.6570784283129589
  0.7043656751196810  0.4559815835131927  0.6575872358394961
  0.7029620483383519  0.9550200455960737  0.6564413046182099
  0.4521054202694417  0.2963813332898262  0.6576134567686903
  0.4637213759905204  0.8029434266840946  0.6594539888588105
  0.9554564816454024  0.3025316236774395  0.6552167731673656
  0.9622931976418807  0.8054645046090156  0.6558794672045561
  0.2972417390940296  0.0372002027521285  0.6615187160203224
  0.2865790315040707  0.5380088478614987  0.6658702346895881
  0.7927109539271812  0.0457551349367147  0.6624692315964902
  0.8023171876370493  0.5407580793929376  0.6575817118289287
  0.0524423281835634  0.1984949805517081  0.7551112929655780
  0.0477825192128611  0.7030861285508849  0.7564718123399105
  0.5526815301957650  0.1950210057228830  0.7551602569150891
  0.5448179601818118  0.6979856936686037  0.7545696188794072
  0.2034507359011511  0.4576191934099900  0.7581133078660169
  0.2029239663865663  0.9585730928833416  0.7581275395151855
  0.7027317306939623  0.4600423022620813  0.7571980313174116
  0.7074310043627454  0.9658165356911150  0.7643303912945019
  0.4625939094370110  0.2789176693206842  0.7660952709848433
  0.4585351207003441  0.7884069767637027  0.7636135905151878
  0.9628453233535705  0.2784324660079914  0.7685147519073943
  0.9561586979091473  0.7936065125341163  0.7592143960900322
  0.2947095087694678  0.0494584987832355  0.7597288593550983
  0.2952744316315313  0.5484786008448668  0.7586106752994871
  0.7938863025819884  0.0582147966618145  0.7573352978815174
  0.7938110985461119  0.5516011081803214  0.7560205390307487
  0.7670808474731017  0.5250750415526997  0.5305210256285630
  0.4929245823204751  0.0061414176794927  0.5555685788881701
  0.4953901627368791  0.4976014775147110  0.5529954276754072
  0.9995150681970848  0.0025602384451590  0.5543287088521150
  0.0094016874728517  0.4878857429527232  0.5523152962664437
  0.2586860769208589  0.2532642800460175  0.5551947012530982
  0.2375880300914489  0.7730575095429593  0.5544356098393884
  0.7398787364617394  0.2356745035346965  0.5565800207140611
  0.7237984810126189  0.7802796773370811  0.5542676700168893
  0.0047869005937782  0.0161803892633494  0.6559357746157011
  0.0033832375857752  0.5125212509211277  0.6544305108371967
  0.5012385876996767  0.0114801001532683  0.6576565782467726
  0.5062974155629455  0.4951528926452298  0.6555864853283203
  0.2527053085820031  0.2447542228149116  0.6571090858291927
  0.2600990322534674  0.7345611257697117  0.6558744025941691
  0.7414207489885805  0.2528908645496427  0.6576266080784392
  0.7628718840941063  0.7358624728264751  0.6547843696922219
  0.1376541339030702  0.1113136852592894  0.6045884807589934
  0.1347007215393953  0.6143020574043664  0.6059216070833414
  0.6416626349065547  0.1043639294843856  0.6075181077124882
  0.6375365514096988  0.6106032177077813  0.6068670089424318
  0.3538409642072503  0.3961241056775974  0.6100387102148310
  0.3567424544788851  0.8917772229110781  0.6109788177751413
  0.8569451074581369  0.3903968586504158  0.6097172491665209
  0.8565521065135946  0.8914642040008220  0.6078358064136111
  0.1049137672538763  0.3595039465215732  0.6079691259724181
  0.1025412512156528  0.8569334291097741  0.6112540462278387
  0.5936956665452878  0.3486838714297884  0.6046097551450949
  0.6057739134267224  0.8620814892069468  0.6105400521268988
  0.3901070874284239  0.1452755452988521  0.6117503979128035
  0.3909466952562883  0.6459456266279175  0.5998327069769910
  0.8838552699465666  0.1398090791396777  0.6100199230575647
  0.8900596103308850  0.6468696082400104  0.5961354522182762
  0.9913517398923702  0.9963196337643854  0.7561957895938186
  0.9938835050231245  0.4799514080989056  0.7552663068685250
  0.4955773677618575  0.9889189536922797  0.7576493271337291
  0.4908415632719872  0.4846859159887268  0.7563902782448266
  0.2562551658859802  0.2555578710424828  0.7574850521150152
  0.2547630141772815  0.7533782095667670  0.7562996193913979
  0.7587600405062321  0.2568721390900290  0.7582203705021774
  0.7439601443552709  0.7690415884152901  0.7550421059000496
  0.1476018560388040  0.1120993836190735  0.7073714287467834
  0.1352621001901574  0.6230097311452835  0.7067721094125593
  0.6557758901818407  0.1038832508217645  0.7084614064325437
  0.6395705116625879  0.6164743916775659  0.7059247891003142
  0.3562128553035736  0.4000959667871323  0.7039830917738865
  0.3610835765321141  0.9001359485262750  0.7039540938073874
  0.8617282798575667  0.3956143520328237  0.7005419807642476
  0.8654600728998220  0.8928833634314830  0.7025744998075967
  0.1110553539348349  0.3609082663436056  0.7065590663100394
  0.1191815344903111  0.8704461603431667  0.7069579699688996
  0.6139159644234505  0.3644696200146353  0.7085749565597073
  0.6076395369981081  0.8583347307335422  0.7010724074988547
  0.3963464328240084  0.1453424873056773  0.7084225837785233
  0.3935621092131501  0.6438138818895883  0.7087675460258647
  0.8968442768973859  0.1492666532293574  0.7076011951112297
  0.8901973911374006  0.6417045422490713  0.7098682666582931
  0.1431163914482422  0.1047427783939095  0.8010740116535831
  0.1456573105110948  0.6045934346399789  0.8006243609464951
  0.6405281842184528  0.1071959012098106  0.8021986858539865
  0.6448851319705822  0.6035549429372444  0.7988762105222410
  0.3455044108525785  0.4049456551091156  0.8048442990320468
  0.3437753672887034  0.9047572309258496  0.8047300633990704
  0.8446466403514213  0.4091610077920213  0.8046020616385130
  0.8538542009838066  0.8947147051219990  0.8055794839441874
  0.1044344871738866  0.3583535875378950  0.8055233050055383
  0.1008777270996028  0.8532524472597167  0.8020243006844433
  0.6018107071239863  0.3554397635826063  0.8048790956210330
  0.6004174157811475  0.8526668945341869  0.8060741319125188
  0.3944345531151059  0.1455442062063773  0.8056316073221719
  0.3999819875463829  0.6511547734173994  0.8035327200805145
  0.8930414227637365  0.1455965910237297  0.8070336162479664
  0.8972272427678946  0.6504811017103963  0.7990821861695180
  0.9942180624533430  0.0014922499711262  0.6056330676786238
  0.9948656088374425  0.5015211922120613  0.6031582256432901
  0.4949925794084954  0.0043870158886809  0.6072185316631851
  0.5000282080965511  0.4976903871507942  0.6024438268614677
  0.2517574829127292  0.2547797412567159  0.6059844783294939
  0.2469852731214786  0.7529336910076344  0.6056309885867275
  0.7390719992411510  0.2520505079218608  0.6060341147392642
  0.7441564144779242  0.7527102241078991  0.6040047926939970
  0.0041078181370123  0.0093373376431136  0.7057566129152892
  0.0029419975000692  0.5047704835415692  0.7049207976778311
  0.5080585983554243  0.0080373360358251  0.7077698552421058
  0.5022599695931509  0.5041857567149539  0.7061014413252350
  0.2552297438737627  0.2548662652180603  0.7072348523181431
  0.2579453170365870  0.7576972224027785  0.7062353411414480
  0.7539967863767948  0.2560018438501118  0.7075706017117760
  0.7538089098108680  0.7538116607050314  0.7045531181446694
  0.9993915393555873  0.0075819519090163  0.8045222017937271
  0.0013349532429197  0.5101300138197341  0.8029624258767007
  0.4990102708389219  0.0039757023708316  0.8059366910113938
  0.5006539817508320  0.5082844064657142  0.8041972155246635
  0.2471654105336102  0.2628611222868639  0.8056564655566651
  0.2464202008843481  0.7618864732397818  0.8045265328163973
  0.7486124273533228  0.2680939668802718  0.8063395108110167
  0.7475281982174493  0.7605069481075594  0.8035797055218257
 
  0.00000000E+00  0.00000000E+00  0.00000000E+00
  0.00000000E+00  0.00000000E+00  0.00000000E+00
  0.00000000E+00  0.00000000E+00  0.00000000E+00
  0.00000000E+00  0.00000000E+00  0.00000000E+00
  0.00000000E+00  0.00000000E+00  0.00000000E+00
  0.00000000E+00  0.00000000E+00  0.00000000E+00
  0.00000000E+00  0.00000000E+00  0.00000000E+00
  0.00000000E+00  0.00000000E+00  0.00000000E+00
  0.00000000E+00  0.00000000E+00  0.00000000E+00
  0.00000000E+00  0.00000000E+00  0.00000000E+00
  0.00000000E+00  0.00000000E+00  0.00000000E+00
  0.00000000E+00  0.00000000E+00  0.00000000E+00
  0.00000000E+00  0.00000000E+00  0.00000000E+00
  0.00000000E+00  0.00000000E+00  0.00000000E+00
  0.00000000E+00  0.00000000E+00  0.00000000E+00
  0.00000000E+00  0.00000000E+00  0.00000000E+00
  0.00000000E+00  0.00000000E+00  0.00000000E+00
  0.00000000E+00  0.00000000E+00  0.00000000E+00
  0.00000000E+00  0.00000000E+00  0.00000000E+00
  0.00000000E+00  0.00000000E+00  0.00000000E+00
  0.00000000E+00  0.00000000E+00  0.00000000E+00
  0.00000000E+00  0.00000000E+00  0.00000000E+00
  0.00000000E+00  0.00000000E+00  0.00000000E+00
  0.00000000E+00  0.00000000E+00  0.00000000E+00
  0.00000000E+00  0.00000000E+00  0.00000000E+00
  0.00000000E+00  0.00000000E+00  0.00000000E+00
  0.00000000E+00  0.00000000E+00  0.00000000E+00
  0.00000000E+00  0.00000000E+00  0.00000000E+00
  0.00000000E+00  0.00000000E+00  0.00000000E+00
  0.00000000E+00  0.00000000E+00  0.00000000E+00
  0.00000000E+00  0.00000000E+00  0.00000000E+00
  0.00000000E+00  0.00000000E+00  0.00000000E+00
  0.00000000E+00  0.00000000E+00  0.00000000E+00
  0.00000000E+00  0.00000000E+00  0.00000000E+00
  0.00000000E+00  0.00000000E+00  0.00000000E+00
  0.00000000E+00  0.00000000E+00  0.00000000E+00
  0.00000000E+00  0.00000000E+00  0.00000000E+00
  0.00000000E+00  0.00000000E+00  0.00000000E+00
  0.00000000E+00  0.00000000E+00  0.00000000E+00
  0.00000000E+00  0.00000000E+00  0.00000000E+00
  0.00000000E+00  0.00000000E+00  0.00000000E+00
  0.00000000E+00  0.00000000E+00  0.00000000E+00
  0.00000000E+00  0.00000000E+00  0.00000000E+00
  0.00000000E+00  0.00000000E+00  0.00000000E+00
  0.00000000E+00  0.00000000E+00  0.00000000E+00
  0.00000000E+00  0.00000000E+00  0.00000000E+00
  0.00000000E+00  0.00000000E+00  0.00000000E+00
  0.00000000E+00  0.00000000E+00  0.00000000E+00
  0.00000000E+00  0.00000000E+00  0.00000000E+00
  0.00000000E+00  0.00000000E+00  0.00000000E+00
  0.00000000E+00  0.00000000E+00  0.00000000E+00
  0.00000000E+00  0.00000000E+00  0.00000000E+00
  0.00000000E+00  0.00000000E+00  0.00000000E+00
  0.00000000E+00  0.00000000E+00  0.00000000E+00
  0.00000000E+00  0.00000000E+00  0.00000000E+00
  0.00000000E+00  0.00000000E+00  0.00000000E+00
  0.00000000E+00  0.00000000E+00  0.00000000E+00
  0.00000000E+00  0.00000000E+00  0.00000000E+00
  0.00000000E+00  0.00000000E+00  0.00000000E+00
  0.00000000E+00  0.00000000E+00  0.00000000E+00
  0.00000000E+00  0.00000000E+00  0.00000000E+00
  0.00000000E+00  0.00000000E+00  0.00000000E+00
  0.00000000E+00  0.00000000E+00  0.00000000E+00
  0.00000000E+00  0.00000000E+00  0.00000000E+00
  0.00000000E+00  0.00000000E+00  0.00000000E+00
  0.00000000E+00  0.00000000E+00  0.00000000E+00
  0.00000000E+00  0.00000000E+00  0.00000000E+00
  0.00000000E+00  0.00000000E+00  0.00000000E+00
  0.00000000E+00  0.00000000E+00  0.00000000E+00
  0.00000000E+00  0.00000000E+00  0.00000000E+00
  0.00000000E+00  0.00000000E+00  0.00000000E+00
  0.00000000E+00  0.00000000E+00  0.00000000E+00
  0.00000000E+00  0.00000000E+00  0.00000000E+00
  0.00000000E+00  0.00000000E+00  0.00000000E+00
  0.00000000E+00  0.00000000E+00  0.00000000E+00
  0.00000000E+00  0.00000000E+00  0.00000000E+00
  0.00000000E+00  0.00000000E+00  0.00000000E+00
  0.00000000E+00  0.00000000E+00  0.00000000E+00
  0.00000000E+00  0.00000000E+00  0.00000000E+00
  0.00000000E+00  0.00000000E+00  0.00000000E+00
  0.00000000E+00  0.00000000E+00  0.00000000E+00
  0.00000000E+00  0.00000000E+00  0.00000000E+00
  0.00000000E+00  0.00000000E+00  0.00000000E+00
  0.00000000E+00  0.00000000E+00  0.00000000E+00
  0.00000000E+00  0.00000000E+00  0.00000000E+00
  0.00000000E+00  0.00000000E+00  0.00000000E+00
  0.00000000E+00  0.00000000E+00  0.00000000E+00
  0.00000000E+00  0.00000000E+00  0.00000000E+00
  0.00000000E+00  0.00000000E+00  0.00000000E+00
  0.00000000E+00  0.00000000E+00  0.00000000E+00
  0.00000000E+00  0.00000000E+00  0.00000000E+00
  0.00000000E+00  0.00000000E+00  0.00000000E+00
  0.00000000E+00  0.00000000E+00  0.00000000E+00
  0.00000000E+00  0.00000000E+00  0.00000000E+00
  0.00000000E+00  0.00000000E+00  0.00000000E+00
  0.00000000E+00  0.00000000E+00  0.00000000E+00
  0.00000000E+00  0.00000000E+00  0.00000000E+00
  0.00000000E+00  0.00000000E+00  0.00000000E+00
  0.00000000E+00  0.00000000E+00  0.00000000E+00
  0.00000000E+00  0.00000000E+00  0.00000000E+00
  0.00000000E+00  0.00000000E+00  0.00000000E+00
  0.00000000E+00  0.00000000E+00  0.00000000E+00
  0.00000000E+00  0.00000000E+00  0.00000000E+00
  0.00000000E+00  0.00000000E+00  0.00000000E+00
  0.00000000E+00  0.00000000E+00  0.00000000E+00
  0.00000000E+00  0.00000000E+00  0.00000000E+00
  0.00000000E+00  0.00000000E+00  0.00000000E+00
  0.00000000E+00  0.00000000E+00  0.00000000E+00
  0.00000000E+00  0.00000000E+00  0.00000000E+00
  0.00000000E+00  0.00000000E+00  0.00000000E+00
  0.00000000E+00  0.00000000E+00  0.00000000E+00
  0.00000000E+00  0.00000000E+00  0.00000000E+00
  0.00000000E+00  0.00000000E+00  0.00000000E+00
  0.00000000E+00  0.00000000E+00  0.00000000E+00
  0.00000000E+00  0.00000000E+00  0.00000000E+00
  0.00000000E+00  0.00000000E+00  0.00000000E+00
  0.00000000E+00  0.00000000E+00  0.00000000E+00
  0.00000000E+00  0.00000000E+00  0.00000000E+00
  0.00000000E+00  0.00000000E+00  0.00000000E+00
  0.00000000E+00  0.00000000E+00  0.00000000E+00
  0.00000000E+00  0.00000000E+00  0.00000000E+00
  0.00000000E+00  0.00000000E+00  0.00000000E+00
  0.00000000E+00  0.00000000E+00  0.00000000E+00
  0.00000000E+00  0.00000000E+00  0.00000000E+00
  0.00000000E+00  0.00000000E+00  0.00000000E+00
  0.00000000E+00  0.00000000E+00  0.00000000E+00
  0.00000000E+00  0.00000000E+00  0.00000000E+00
  0.00000000E+00  0.00000000E+00  0.00000000E+00
  0.00000000E+00  0.00000000E+00  0.00000000E+00
  0.00000000E+00  0.00000000E+00  0.00000000E+00
  0.00000000E+00  0.00000000E+00  0.00000000E+00
  0.00000000E+00  0.00000000E+00  0.00000000E+00
  0.00000000E+00  0.00000000E+00  0.00000000E+00
  0.00000000E+00  0.00000000E+00  0.00000000E+00
  0.00000000E+00  0.00000000E+00  0.00000000E+00
  0.00000000E+00  0.00000000E+00  0.00000000E+00
  0.00000000E+00  0.00000000E+00  0.00000000E+00
  0.00000000E+00  0.00000000E+00  0.00000000E+00
  0.00000000E+00  0.00000000E+00  0.00000000E+00
  0.00000000E+00  0.00000000E+00  0.00000000E+00
  0.00000000E+00  0.00000000E+00  0.00000000E+00
  0.00000000E+00  0.00000000E+00  0.00000000E+00
  0.00000000E+00  0.00000000E+00  0.00000000E+00
  0.00000000E+00  0.00000000E+00  0.00000000E+00
  0.00000000E+00  0.00000000E+00  0.00000000E+00
  0.00000000E+00  0.00000000E+00  0.00000000E+00
  0.00000000E+00  0.00000000E+00  0.00000000E+00
  0.00000000E+00  0.00000000E+00  0.00000000E+00
  0.00000000E+00  0.00000000E+00  0.00000000E+00
  0.00000000E+00  0.00000000E+00  0.00000000E+00
  0.00000000E+00  0.00000000E+00  0.00000000E+00
  0.00000000E+00  0.00000000E+00  0.00000000E+00
  0.00000000E+00  0.00000000E+00  0.00000000E+00
  0.00000000E+00  0.00000000E+00  0.00000000E+00
  0.00000000E+00  0.00000000E+00  0.00000000E+00
  0.00000000E+00  0.00000000E+00  0.00000000E+00
  0.00000000E+00  0.00000000E+00  0.00000000E+00
  0.00000000E+00  0.00000000E+00  0.00000000E+00
  0.00000000E+00  0.00000000E+00  0.00000000E+00
  0.00000000E+00  0.00000000E+00  0.00000000E+00
  0.00000000E+00  0.00000000E+00  0.00000000E+00
  0.00000000E+00  0.00000000E+00  0.00000000E+00
  0.00000000E+00  0.00000000E+00  0.00000000E+00
  0.00000000E+00  0.00000000E+00  0.00000000E+00
  0.00000000E+00  0.00000000E+00  0.00000000E+00
  0.00000000E+00  0.00000000E+00  0.00000000E+00
  0.00000000E+00  0.00000000E+00  0.00000000E+00
  0.00000000E+00  0.00000000E+00  0.00000000E+00
  0.00000000E+00  0.00000000E+00  0.00000000E+00
  0.00000000E+00  0.00000000E+00  0.00000000E+00
  0.00000000E+00  0.00000000E+00  0.00000000E+00
  0.00000000E+00  0.00000000E+00  0.00000000E+00
  0.00000000E+00  0.00000000E+00  0.00000000E+00
  0.00000000E+00  0.00000000E+00  0.00000000E+00
  0.00000000E+00  0.00000000E+00  0.00000000E+00
  0.00000000E+00  0.00000000E+00  0.00000000E+00
  0.00000000E+00  0.00000000E+00  0.00000000E+00
  0.00000000E+00  0.00000000E+00  0.00000000E+00
  0.00000000E+00  0.00000000E+00  0.00000000E+00
  0.00000000E+00  0.00000000E+00  0.00000000E+00
  0.00000000E+00  0.00000000E+00  0.00000000E+00
  0.00000000E+00  0.00000000E+00  0.00000000E+00
  0.00000000E+00  0.00000000E+00  0.00000000E+00
  0.00000000E+00  0.00000000E+00  0.00000000E+00
  0.00000000E+00  0.00000000E+00  0.00000000E+00
  0.00000000E+00  0.00000000E+00  0.00000000E+00
  0.00000000E+00  0.00000000E+00  0.00000000E+00
  0.00000000E+00  0.00000000E+00  0.00000000E+00
  0.00000000E+00  0.00000000E+00  0.00000000E+00
  0.00000000E+00  0.00000000E+00  0.00000000E+00
  0.00000000E+00  0.00000000E+00  0.00000000E+00
  0.00000000E+00  0.00000000E+00  0.00000000E+00
  0.00000000E+00  0.00000000E+00  0.00000000E+00
  0.00000000E+00  0.00000000E+00  0.00000000E+00
  0.00000000E+00  0.00000000E+00  0.00000000E+00
  0.00000000E+00  0.00000000E+00  0.00000000E+00
  0.00000000E+00  0.00000000E+00  0.00000000E+00
  0.00000000E+00  0.00000000E+00  0.00000000E+00
  0.00000000E+00  0.00000000E+00  0.00000000E+00
  0.00000000E+00  0.00000000E+00  0.00000000E+00