H    C    N    I    Pb                  
    1.000000000000000     
    18.0608005523681996    0.0000000000000000    0.0000000000000000
    -0.0049186488613486   18.0627994537354013    0.0000000000000000
     0.0000000000000000    0.0000000000000000   62.4874992370604971
   H    C    N    I    Pb
   143    39    47    72    24
Direct
  0.4891058092337903  0.3429990148553391  0.5635286362077941
  0.4055552433931306  0.7795767671674954  0.5673794430534121
  0.9300924949861891  0.2213147672151378  0.5782795115083282
  0.9157107479865347  0.7764018400413631  0.5702758921786359
  0.2735780560474071  0.0953849746372757  0.5673883101108876
  0.3153831663715548  0.6027165046511765  0.5629413100345325
  0.7832741169069467  0.0974910074495928  0.5638533648500462
  0.1168096061857486  0.2301009116798282  0.5564574435575378
  0.1019101678933926  0.7075545931925810  0.5620923367990719
  0.5465699160345978  0.1474779777500670  0.5630178558863612
  0.5910691583763064  0.7009172120509777  0.5640933249997723
  0.3575427197222026  0.0510667103686234  0.5610296926222554
  0.2289051201470801  0.6022835706517690  0.5510904081427915
  0.8632235053377438  0.0466126830669652  0.5570250190659130
  0.0546032383264204  0.1683949912914973  0.5680353327199831
  0.0135213445470569  0.6779747222355245  0.5704580788719339
  0.5860441035962856  0.2356393962418300  0.5647810880009212
  0.4993841900384094  0.6746769482243403  0.5696500568507764
  0.3057356661687691  0.4862445787698145  0.5769915624799636
  0.1663965873199417  0.0061433997979489  0.5743506784196591
  0.6730389151634599  0.0164930366254212  0.5741776482148997
  0.3976352449664116  0.3119517073917316  0.5612056431083502
  0.4442363218522591  0.8665669536360736  0.5613813378636541
  0.9173149517836904  0.3141315133991002  0.5723326707799693
  0.9458223236052461  0.8642541789533880  0.5614770656502448
  0.1979754513996191  0.4189626115033702  0.5746413784113114
  0.1861694938172088  0.9125571165985846  0.5688363081663430
  0.6832136235310319  0.9220855781986961  0.5680258181412090
  0.4272212343309973  0.1896086017788402  0.5603732412540531
  0.5622384192472862  0.8215958346646626  0.5575358819818623
  0.0316344689585593  0.3274971664586266  0.5560971222862406
  0.0634691648028673  0.8250987330171859  0.5542339942682508
  0.1515645668162806  0.4829152345991840  0.5589657017950908
  0.3068995408742791  0.9348962000650841  0.5600897426847125
  0.8026567511242958  0.9339961211718727  0.5569245280473192
  0.4074672353027341  0.2615926501248176  0.6571340788236274
  0.4805481279033854  0.8166863918580222  0.6745528647228731
  0.9452942378143100  0.3251228987253010  0.6699785032210868
  0.9969213604813337  0.7565732379483415  0.6838021750672635
  0.3087471492442273  0.0238736910224113  0.6770514330159350
  0.3163401926543341  0.5048052366601753  0.6760233550615513
  0.7866584059860636  0.0474869373654391  0.6786865559358205
  0.8441506402563759  0.5031602038729287  0.6591347114733485
  0.0770043024376934  0.1740272682341424  0.6630859318684206
  0.0644384446021495  0.7105754493246632  0.6421042575996396
  0.6008750913892896  0.1973131368215731  0.6596905385604607
  0.5699088666668946  0.6684495416603911  0.6446014544823475
  0.1642903213853065  0.4291832104977978  0.6448215248242662
  0.1672106831275847  0.9252517564359125  0.6467234143866992
  0.6479557070977772  0.4505148903581974  0.6572027369262967
  0.6743333875484803  0.9251117645662972  0.6452667186667952
  0.0455703945190618  0.2364510732144539  0.6821764762096025
  0.0826118879818145  0.6797127008958120  0.6680760564962107
  0.5116181078757126  0.1600766031359544  0.6586626129603655
  0.5693768920711133  0.7083488173881609  0.6700891754598911
  0.2337506718364279  0.4022424793428988  0.6624584632728836
  0.2023080560232693  0.9319956398219188  0.6726694909248943
  0.7356267829858579  0.4090263093663432  0.6590330760556137
  0.6885604814369222  0.9472834170365239  0.6721111044409295
  0.4419995888647811  0.3519631285905658  0.6572042505353966
  0.4232685357841012  0.8342167860357225  0.6525902823156026
  0.9263561166349874  0.3238513368732315  0.6425811738025003
  0.9262769509500194  0.8380375511350298  0.6642580269664135
  0.3293844724851290  0.0763596664282901  0.6543935123389597
  0.2975454325249468  0.5935092061476722  0.6656377009804240
  0.8317669412455345  0.0793219754002905  0.6558863209193493
  0.8159215687294190  0.5956592175702656  0.6571572551872175
  0.0066388425090968  0.2262323943085447  0.6357311952895699
  0.9652488359678958  0.8125846826431435  0.6397198619759550
  0.5633792197236347  0.3178762584684937  0.6588432476972989
  0.4752015163062705  0.7419246227300651  0.6318495337981356
  0.2422706376543115  0.0178966475004789  0.6332511866960139
  0.1990295860799242  0.5528546992642883  0.6451345747127738
  0.7640074796515697  0.0055366229497541  0.6328220672138533
  0.6926124935760917  0.5689307567438600  0.6556280817349214
  0.4572180423632379  0.2569283363764386  0.7811190273880583
  0.4526518269968821  0.7708161446944625  0.7790889368660980
  0.9550498060525375  0.2493251257779222  0.7824507991500514
  0.9491022374093906  0.7886935443910724  0.7753757209094544
  0.2939674673290033  0.0555565556547734  0.7759871389752215
  0.3004211652376935  0.5505228801138287  0.7748687023208461
  0.7806372550019073  0.0895964889194612  0.7703555366494604
  0.7962714671626454  0.5604167458670246  0.7721574304904470
  0.0850238150457887  0.1836137712610517  0.7424852047732420
  0.0826424763070238  0.6752011222045359  0.7464779602120698
  0.5847529109142766  0.1754959506441782  0.7429528598668312
  0.5768005572090064  0.6751442538054712  0.7428265531106586
  0.1695133302075160  0.4256047331790149  0.7489812984759852
  0.1725076972228896  0.9246922671418679  0.7485119694724168
  0.6704136734470211  0.4245705830441240  0.7486173840518041
  0.6895736147584394  0.9136525750832567  0.7608891257637760
  0.0586167971179549  0.1686166918173363  0.7689378922067485
  0.0507975124292561  0.6912548479540798  0.7724449932688248
  0.5606780388364986  0.1716079665835028  0.7699494619913646
  0.5506726230197674  0.6770281055902694  0.7697014059275000
  0.2001553291929303  0.4514349038417700  0.7743374099816548
  0.1934236551026507  0.9558939531368248  0.7742165538643234
  0.6957325480598079  0.4616618436444950  0.7734034504486520
  0.6864689067422269  0.9914817959510046  0.7776494727589485
  0.4313769771109489  0.3240692917545540  0.7625468896777847
  0.4293652015096385  0.8337965508234086  0.7590202558042215
  0.9335866999710060  0.3261175120211674  0.7666167732234572
  0.9250789808973270  0.8322103816548121  0.7515260021061444
  0.3307178783320749  0.0817193580319085  0.7513556942631108
  0.3284532476038037  0.5824893924399615  0.7498308754290615
  0.8344743183128140  0.0776344925170728  0.7475037516246391
  0.8285924490267264  0.5819129657078274  0.7465680940539563
  0.0110547240739094  0.2884257627693919  0.7387382529463995
  0.0065640146116348  0.7625086691493191  0.7311046810022954
  0.5068324087018524  0.2747517105950836  0.7356799146317534
  0.5035209309084567  0.7752998561257343  0.7335279328517104
  0.2575685504652562  0.0007659450828326  0.7320016934879604
  0.2481124602030703  0.5063119830783752  0.7312863132781460
  0.7812432130055215  0.9640190617546829  0.7391291338010386
  0.7525272215866855  0.4974815280020431  0.7296355188040498
  0.7032737993335961  0.4284795775849472  0.5260024351310376
  0.7380001644714718  0.4694328770654425  0.5022975309010974
  0.6530408417508866  0.5416440097549993  0.5362914861877952
  0.7088879609724037  0.6216407142710865  0.5394582108076243
  0.8377210709830974  0.4855784029067585  0.5550279747516471
  0.7869767972881637  0.5658948418568975  0.5616565994754031
  0.8810069507117088  0.5262163692900753  0.5236792505858792
  0.8236058778745646  0.5611158737453887  0.5029721019594301
  0.8667021909312216  0.4229933332860090  0.5116351976272594
  0.8302776416109092  0.3817510466587061  0.5350633385020496
  0.8429558839352171  0.2869308331545172  0.5092927183777616
  0.7479571577756147  0.3015673678950296  0.5127225762072124
  0.6629761984414448  0.5533634560543697  0.4958706417559073
  0.7178274779384061  0.6350500425579894  0.4993163653780914
  0.6254416742022123  0.6319182210582134  0.5086430006322505
  0.7395481318768926  0.4648222040962199  0.5828065761992085
  0.7255365071631653  0.4065068262151466  0.5604954305987175
  0.6688559426987374  0.4866763078579734  0.5644451901030361
  0.8076912794539632  0.6804360080327498  0.5247001165652639
  0.9015558974269966  0.6576457689799297  0.5196995343731743
  0.8631030917830464  0.6422216476980489  0.5452658517184594
  0.8390192864582781  0.3624158822263486  0.4749443287940324
  0.7895393647731731  0.2787248895598596  0.4747762604884056
  0.6458089454461167  0.3057231076122076  0.4922089854497049
  0.7799170985176103  0.4539002968400782  0.4546469432290317
  0.5331204805707720  0.3734153676551059  0.4812074115420891
  0.6665546302442368  0.5210380180461986  0.4430890255332222
  0.5426014964889918  0.4814872744352603  0.4565359609019148
  0.0153007650260210  0.2731587090009883  0.5623052231302702
  0.0230100384507229  0.7848850420727860  0.5600690973369808
  0.4721062146428547  0.2298505974721357  0.5616540013232262
  0.5175002679860433  0.7831672654745199  0.5614414485286464
  0.2600388691275568  0.5079928436629118  0.5673541056051790
  0.2715552447663055  0.9818353585226386  0.5641454712441230
  0.7723971852570836  0.9839625489416838  0.5614244323147738
  0.0024548463770106  0.2483263550818594  0.6519437394969525
  0.0039540642303472  0.7584850923536971  0.6664597880093858
  0.5213098761497178  0.2745313472558435  0.6584865859898112
  0.4950634018164676  0.7502495122927026  0.6481904111391097
  0.2298979859460765  0.5131408282011910  0.6548911280590389
  0.2478459167036956  0.0016939002917745  0.6500119255806953
  0.7318758363720271  0.5231954794163987  0.6569272935466686
  0.7533416734972685  0.0023601690822312  0.6499915804822426
  0.5069798149625184  0.2503773875853246  0.7516753035447254
  0.5021268513912037  0.7546691236324837  0.7499503537472216
  0.0086147981351420  0.2562712566811876  0.7535396477037659
  0.0034484742833563  0.7532643125446210  0.7483237091571688
  0.2519015207937528  0.0028951427655090  0.7493627560375941
  0.2488763346028522  0.5042369681952618  0.7487359715525158
  0.7613832172347761  0.9948643415172339  0.7530634410668859
  0.7497143448407089  0.5029283472907337  0.7470197882554631
  0.7209956397525858  0.3752405789908985  0.4742857707610751
  0.6508057341231600  0.3530556048813896  0.4814636765855754
  0.7255795222923255  0.4360220705938425  0.4604261531583034
  0.5871544219765705  0.3910986395299813  0.4752618759152073
  0.6618993415088094  0.4739857368644005  0.4539914199283920
  0.5924077575946638  0.4519328297022728  0.4614664228946447
  0.7526580254989191  0.4530431410232684  0.5186174616917471
  0.6982263237821957  0.5736430454336576  0.5290778319919629
  0.7827614401946301  0.5111874657585682  0.5542273738685034
  0.8338492252809423  0.5624816157470387  0.5203119782764170
  0.8165195732731610  0.3979165534740509  0.5185278559460872
  0.7982444127732634  0.3268430899422989  0.5060430479419996
  0.6762755559320413  0.5991298835336499  0.5068134318535928
  0.7252102297359823  0.4646775004385436  0.5657182431197436
  0.8512469646070813  0.6399413744985091  0.5281050872287912
  0.7897915523227695  0.3349200978936198  0.4816559130400355
  0.0631600278518955  0.2185052393529817  0.5608028403770188
  0.0461672589124799  0.7168403090863800  0.5631514774324753
  0.5397957853365097  0.2036483843880220  0.5627348931583733
  0.5359957406212583  0.7134778837271597  0.5640677062848221
  0.4528892422005789  0.2998847057571669  0.5617228845213399
  0.4501699836147002  0.8103611339341898  0.5627449786752915
  0.9480633799192395  0.2674160005850180  0.5701362275333274
  0.9549562252682259  0.8085614923730901  0.5629948951646018
  0.2008380956385864  0.4664009439265146  0.5657694072304982
  0.2020725615543939  0.9668827951588802  0.5685096543555926
  0.7029199977659436  0.9749943460138206  0.5670701960594218
  0.3016144417216076  0.0479946504316710  0.5637301201024753
  0.2697897174338724  0.5732579259765544  0.5584698658877929
  0.8075796385505835  0.0474385228564659  0.5604109402892929
  0.0444454850979027  0.2181955644525466  0.6667123240025443
  0.0531072926460216  0.7134348340257093  0.6580649782374465
  0.5449774078550865  0.2058714584164284  0.6590824602100032
  0.5476060419957106  0.7058270773550985  0.6550296499875757
  0.2072980674385528  0.4440557786321568  0.6545316880889762
  0.2038725184477566  0.9492103108509377  0.6570748930742858
  0.7043441719851160  0.4559532623201169  0.6575888422162101
  0.7029434383762103  0.9549964599255675  0.6564430902248382
  0.4521370727532651  0.2963749755712538  0.6576147771449102
  0.4637235681557190  0.8029418847907913  0.6594502511114461
  0.9554404520279891  0.3025465990213944  0.6552151995357997
  0.9622706640303175  0.8054766252717462  0.6558968889170610
  0.2972635052910288  0.0372123835754026  0.6615258073803134
  0.2865979505207043  0.5380204211945958  0.6658776262364940
  0.7927001788833599  0.0457379741988404  0.6624704222403647
  0.8023100429976022  0.5407590406784217  0.6575837080385465
  0.0524374775592797  0.1984885778859585  0.7551133115839265
  0.0478063162433321  0.7030629881344886  0.7564706237106872
  0.5526931254458016  0.1950233156794412  0.7551534808405047
  0.5447983617396754  0.6979849403179766  0.7545808375949543
  0.2034524936716192  0.4576154309466925  0.7581146754136202
  0.2029233034407992  0.9585803993170130  0.7581266552650400
  0.7027367980150208  0.4600461963741891  0.7571998675364775
  0.7074467169987592  0.9658327523728402  0.7643322500080463
  0.4626245839101113  0.2789108797870401  0.7660829884508342
  0.4585332588536145  0.7884202731683720  0.7635996643754015
  0.9628425781812863  0.2784283042156094  0.7685096466383841
  0.9561798246094614  0.7935870234741991  0.7592111982120008
  0.2947059514191994  0.0494630332211126  0.7597254393385939
  0.2952928420836192  0.5484878750556293  0.7586199952466711
  0.7939036921007627  0.0582137907884185  0.7573328544956290
  0.7938152034331603  0.5516052477363327  0.7560229522347693
  0.7671289447211306  0.5250368076032544  0.5305079564511285
  0.4929257565785609  0.0061526355755684  0.5555683482407340
  0.4953830361734599  0.4975988879018500  0.5529954316121599
  0.9995190333374034  0.0025510310251436  0.5543275184766195
  0.0094021884347516  0.4878880208989322  0.5523161088213980
  0.2586882963840640  0.2532679044135104  0.5551943579520111
  0.2375870490327320  0.7730753367443931  0.5544362552715255
  0.7398745879346195  0.2356782447463922  0.5565795190066499
  0.7237909571976946  0.7802825249919852  0.5542671387865994
  0.0047833196464121  0.0161837467235546  0.6559353691317972
  0.0033905981565645  0.5125212909801317  0.6544295175557963
  0.5012429335087759  0.0114809255188067  0.6576578642976850
  0.5063069016746647  0.4951552852486661  0.6555871410096958
  0.2527115973278268  0.2447590281128268  0.6571088436433936
  0.2600956568068838  0.7345564778188123  0.6558732033682714
  0.7414246727346258  0.2528858147305705  0.6576294950666158
  0.7628701906322769  0.7358606800585263  0.6547853448342283
  0.1376505595700286  0.1113188996645318  0.6045879937025356
  0.1347004216181260  0.6142934682097315  0.6059220875838464
  0.6416564736232008  0.1043653545365614  0.6075189197958228
  0.6375365735751174  0.6106024528916172  0.6068672078363488
  0.3538447904588566  0.3961120614027806  0.6100415014532568
  0.3567408235285191  0.8917736266397917  0.6109778563983372
  0.8569427119676203  0.3904014174878828  0.6097169345801940
  0.8565546441556245  0.8914614657790952  0.6078331494033806
  0.1049152616720095  0.3595046560312469  0.6079686541033523
  0.1025431864082739  0.8569310765451779  0.6112502742945685
  0.5936964545367245  0.3486814589068949  0.6046082279006970
  0.6057672375170189  0.8620852970896525  0.6105366252722899
  0.3901063511995270  0.1452753035508968  0.6117505628802842
  0.3909397823463073  0.6459397825841815  0.5998355248725120
  0.8838531828468179  0.1398163140628336  0.6100205462904232
  0.8900688619791007  0.6468671906083584  0.5961350500089264
  0.9913542928788739  0.9963257844605062  0.7561958792073555
  0.9938832461988274  0.4799539621870461  0.7552672196731535
  0.4955759532000955  0.9889244821210154  0.7576466677251162
  0.4908341668800970  0.4846871761307368  0.7563909560989845
  0.2562540396417230  0.2555590680850000  0.7574868387081345
  0.2547648550166651  0.7533705297536967  0.7562984190275298
  0.7587755398432712  0.2568705245885372  0.7582214206856636
  0.7439597300132743  0.7690313466435146  0.7550422727009449
  0.1475941033929522  0.1121050523098361  0.7073689691863230
  0.1352659538783863  0.6230104902120652  0.7067707176140693
  0.6557782117010561  0.1038802333574741  0.7084617171798905
  0.6395799952874275  0.6164639955638227  0.7059254330063079
  0.3562114766856706  0.4000949825837439  0.7039840169996451
  0.3610843856048414  0.9001324429719653  0.7039505860854508
  0.8617253449998610  0.3956105718062817  0.7005425334278113
  0.8654675489748189  0.8928889326328102  0.7025761998744763
  0.1110490892498037  0.3609047604959833  0.7065584961879693
  0.1191819677438160  0.8704434232126981  0.7069597378948269
  0.6139113884599880  0.3644711899299072  0.7085721025492374
  0.6076615106499642  0.8583578870725947  0.7010687391987223
  0.3963464034301261  0.1453436721909707  0.7084224827229354
  0.3935590552006437  0.6438036031805943  0.7087678338218080
  0.8968438015997509  0.1492686378089520  0.7076000485472524
  0.8901933458731486  0.6417008083296432  0.7098716046944366
  0.1431211289027849  0.1047389584084958  0.8010739848026565
  0.1456569711892078  0.6045911382458692  0.8006253090213667
  0.6405219639662210  0.1072115391192832  0.8022011509343366
  0.6448788997083671  0.6035578800051631  0.7988763675257083
  0.3455010219130523  0.4049375710777075  0.8048454117356876
  0.3437759407459969  0.9047562001075490  0.8047302327458464
  0.8446587895800165  0.4091589734134718  0.8046010838648882
  0.8538487419581631  0.8947148879693407  0.8055797339139716
  0.1044297116847837  0.3583499210039864  0.8055218136861865
  0.1008825308730704  0.8532539649267046  0.8020242301012792
  0.6018096330243037  0.3554325451414715  0.8048785071457261
  0.6004134852903191  0.8526696166845370  0.8060692828245765
  0.3944200787664620  0.1455450539704033  0.8056321462114445
  0.3999961189877893  0.6511579201988604  0.8035301719137504
  0.8930379457967035  0.1455939129099257  0.8070357448000286
  0.8972279974731979  0.6504833689834633  0.7990819788233720
  0.9942189550194450  0.0014861255145757  0.6056333248858335
  0.9948558504297131  0.5014987363906248  0.6031603173605128
  0.4949915004310406  0.0043927186024908  0.6072200092765364
  0.5000394684336704  0.4976865565973446  0.6024434202965445
  0.2517614536148963  0.2547824223332608  0.6059838667053745
  0.2469860491051107  0.7529364665144475  0.6056322989702251
  0.7390747920540719  0.2520560644099419  0.6060392163215111
  0.7441627601571373  0.7527061739194985  0.6040049337104477
  0.0041058404216361  0.0093376167444012  0.7057565008569644
  0.0029538381867325  0.5047754962711263  0.7049181155660187
  0.5080586693100442  0.0080380609918944  0.7077687835383097
  0.5022608921688153  0.5041970433700262  0.7061034882091403
  0.2552297779469274  0.2548647885762937  0.7072344137444633
  0.2579433816971098  0.7577011532788915  0.7062345276840364
  0.7540020232516856  0.2560016890639693  0.7075681941673021
  0.7538106808951461  0.7538139798620443  0.7045535181869380
 -0.0006163018087627  0.0075957458523101  0.8045262450267854
  0.0013378761186276  0.5101385586918945  0.8029639376893949
  0.4990110570437185  0.0039786683372734  0.8059399418960997
  0.5006569405432846  0.5082865612354657  0.8041942337064616
  0.2471625875607631  0.2628667944490021  0.8056549727925642
  0.2464033808834925  0.7618853077689710  0.8045276708786671
  0.7486171080901969  0.2680969828266800  0.8063404521522820
  0.7475274437816164  0.7605165398063694  0.8035798779785376
 
  0.00000000E+00  0.00000000E+00  0.00000000E+00
  0.00000000E+00  0.00000000E+00  0.00000000E+00
  0.00000000E+00  0.00000000E+00  0.00000000E+00
  0.00000000E+00  0.00000000E+00  0.00000000E+00
  0.00000000E+00  0.00000000E+00  0.00000000E+00
  0.00000000E+00  0.00000000E+00  0.00000000E+00
  0.00000000E+00  0.00000000E+00  0.00000000E+00
  0.00000000E+00  0.00000000E+00  0.00000000E+00
  0.00000000E+00  0.00000000E+00  0.00000000E+00
  0.00000000E+00  0.00000000E+00  0.00000000E+00
  0.00000000E+00  0.00000000E+00  0.00000000E+00
  0.00000000E+00  0.00000000E+00  0.00000000E+00
  0.00000000E+00  0.00000000E+00  0.00000000E+00
  0.00000000E+00  0.00000000E+00  0.00000000E+00
  0.00000000E+00  0.00000000E+00  0.00000000E+00
  0.00000000E+00  0.00000000E+00  0.00000000E+00
  0.00000000E+00  0.00000000E+00  0.00000000E+00
  0.00000000E+00  0.00000000E+00  0.00000000E+00
  0.00000000E+00  0.00000000E+00  0.00000000E+00
  0.00000000E+00  0.00000000E+00  0.00000000E+00
  0.00000000E+00  0.00000000E+00  0.00000000E+00
  0.00000000E+00  0.00000000E+00  0.00000000E+00
  0.00000000E+00  0.00000000E+00  0.00000000E+00
  0.00000000E+00  0.00000000E+00  0.00000000E+00
  0.00000000E+00  0.00000000E+00  0.00000000E+00
  0.00000000E+00  0.00000000E+00  0.00000000E+00
  0.00000000E+00  0.00000000E+00  0.00000000E+00
  0.00000000E+00  0.00000000E+00  0.00000000E+00
  0.00000000E+00  0.00000000E+00  0.00000000E+00
  0.00000000E+00  0.00000000E+00  0.00000000E+00
  0.00000000E+00  0.00000000E+00  0.00000000E+00
  0.00000000E+00  0.00000000E+00  0.00000000E+00
  0.00000000E+00  0.00000000E+00  0.00000000E+00
  0.00000000E+00  0.00000000E+00  0.00000000E+00
  0.00000000E+00  0.00000000E+00  0.00000000E+00
  0.00000000E+00  0.00000000E+00  0.00000000E+00
  0.00000000E+00  0.00000000E+00  0.00000000E+00
  0.00000000E+00  0.00000000E+00  0.00000000E+00
  0.00000000E+00  0.00000000E+00  0.00000000E+00
  0.00000000E+00  0.00000000E+00  0.00000000E+00
  0.00000000E+00  0.00000000E+00  0.00000000E+00
  0.00000000E+00  0.00000000E+00  0.00000000E+00
  0.00000000E+00  0.00000000E+00  0.00000000E+00
  0.00000000E+00  0.00000000E+00  0.00000000E+00
  0.00000000E+00  0.00000000E+00  0.00000000E+00
  0.00000000E+00  0.00000000E+00  0.00000000E+00
  0.00000000E+00  0.00000000E+00  0.00000000E+00
  0.00000000E+00  0.00000000E+00  0.00000000E+00
  0.00000000E+00  0.00000000E+00  0.00000000E+00
  0.00000000E+00  0.00000000E+00  0.00000000E+00
  0.00000000E+00  0.00000000E+00  0.00000000E+00
  0.00000000E+00  0.00000000E+00  0.00000000E+00
  0.00000000E+00  0.00000000E+00  0.00000000E+00
  0.00000000E+00  0.00000000E+00  0.00000000E+00
  0.00000000E+00  0.00000000E+00  0.00000000E+00
  0.00000000E+00  0.00000000E+00  0.00000000E+00
  0.00000000E+00  0.00000000E+00  0.00000000E+00
  0.00000000E+00  0.00000000E+00  0.00000000E+00
  0.00000000E+00  0.00000000E+00  0.00000000E+00
  0.00000000E+00  0.00000000E+00  0.00000000E+00
  0.00000000E+00  0.00000000E+00  0.00000000E+00
  0.00000000E+00  0.00000000E+00  0.00000000E+00
  0.00000000E+00  0.00000000E+00  0.00000000E+00
  0.00000000E+00  0.00000000E+00  0.00000000E+00
  0.00000000E+00  0.00000000E+00  0.00000000E+00
  0.00000000E+00  0.00000000E+00  0.00000000E+00
  0.00000000E+00  0.00000000E+00  0.00000000E+00
  0.00000000E+00  0.00000000E+00  0.00000000E+00
  0.00000000E+00  0.00000000E+00  0.00000000E+00
  0.00000000E+00  0.00000000E+00  0.00000000E+00
  0.00000000E+00  0.00000000E+00  0.00000000E+00
  0.00000000E+00  0.00000000E+00  0.00000000E+00
  0.00000000E+00  0.00000000E+00  0.00000000E+00
  0.00000000E+00  0.00000000E+00  0.00000000E+00
  0.00000000E+00  0.00000000E+00  0.00000000E+00
  0.00000000E+00  0.00000000E+00  0.00000000E+00
  0.00000000E+00  0.00000000E+00  0.00000000E+00
  0.00000000E+00  0.00000000E+00  0.00000000E+00
  0.00000000E+00  0.00000000E+00  0.00000000E+00
  0.00000000E+00  0.00000000E+00  0.00000000E+00
  0.00000000E+00  0.00000000E+00  0.00000000E+00
  0.00000000E+00  0.00000000E+00  0.00000000E+00
  0.00000000E+00  0.00000000E+00  0.00000000E+00
  0.00000000E+00  0.00000000E+00  0.00000000E+00
  0.00000000E+00  0.00000000E+00  0.00000000E+00
  0.00000000E+00  0.00000000E+00  0.00000000E+00
  0.00000000E+00  0.00000000E+00  0.00000000E+00
  0.00000000E+00  0.00000000E+00  0.00000000E+00
  0.00000000E+00  0.00000000E+00  0.00000000E+00
  0.00000000E+00  0.00000000E+00  0.00000000E+00
  0.00000000E+00  0.00000000E+00  0.00000000E+00
  0.00000000E+00  0.00000000E+00  0.00000000E+00
  0.00000000E+00  0.00000000E+00  0.00000000E+00
  0.00000000E+00  0.00000000E+00  0.00000000E+00
  0.00000000E+00  0.00000000E+00  0.00000000E+00
  0.00000000E+00  0.00000000E+00  0.00000000E+00
  0.00000000E+00  0.00000000E+00  0.00000000E+00
  0.00000000E+00  0.00000000E+00  0.00000000E+00
  0.00000000E+00  0.00000000E+00  0.00000000E+00
  0.00000000E+00  0.00000000E+00  0.00000000E+00
  0.00000000E+00  0.00000000E+00  0.00000000E+00
  0.00000000E+00  0.00000000E+00  0.00000000E+00
  0.00000000E+00  0.00000000E+00  0.00000000E+00
  0.00000000E+00  0.00000000E+00  0.00000000E+00
  0.00000000E+00  0.00000000E+00  0.00000000E+00
  0.00000000E+00  0.00000000E+00  0.00000000E+00
  0.00000000E+00  0.00000000E+00  0.00000000E+00
  0.00000000E+00  0.00000000E+00  0.00000000E+00
  0.00000000E+00  0.00000000E+00  0.00000000E+00
  0.00000000E+00  0.00000000E+00  0.00000000E+00
  0.00000000E+00  0.00000000E+00  0.00000000E+00
  0.00000000E+00  0.00000000E+00  0.00000000E+00
  0.00000000E+00  0.00000000E+00  0.00000000E+00
  0.00000000E+00  0.00000000E+00  0.00000000E+00
  0.00000000E+00  0.00000000E+00  0.00000000E+00
  0.00000000E+00  0.00000000E+00  0.00000000E+00
  0.00000000E+00  0.00000000E+00  0.00000000E+00
  0.00000000E+00  0.00000000E+00  0.00000000E+00
  0.00000000E+00  0.00000000E+00  0.00000000E+00
  0.00000000E+00  0.00000000E+00  0.00000000E+00
  0.00000000E+00  0.00000000E+00  0.00000000E+00
  0.00000000E+00  0.00000000E+00  0.00000000E+00
  0.00000000E+00  0.00000000E+00  0.00000000E+00
  0.00000000E+00  0.00000000E+00  0.00000000E+00
  0.00000000E+00  0.00000000E+00  0.00000000E+00
  0.00000000E+00  0.00000000E+00  0.00000000E+00
  0.00000000E+00  0.00000000E+00  0.00000000E+00
  0.00000000E+00  0.00000000E+00  0.00000000E+00
  0.00000000E+00  0.00000000E+00  0.00000000E+00
  0.00000000E+00  0.00000000E+00  0.00000000E+00
  0.00000000E+00  0.00000000E+00  0.00000000E+00
  0.00000000E+00  0.00000000E+00  0.00000000E+00
  0.00000000E+00  0.00000000E+00  0.00000000E+00
  0.00000000E+00  0.00000000E+00  0.00000000E+00
  0.00000000E+00  0.00000000E+00  0.00000000E+00
  0.00000000E+00  0.00000000E+00  0.00000000E+00
  0.00000000E+00  0.00000000E+00  0.00000000E+00
  0.00000000E+00  0.00000000E+00  0.00000000E+00
  0.00000000E+00  0.00000000E+00  0.00000000E+00
  0.00000000E+00  0.00000000E+00  0.00000000E+00
  0.00000000E+00  0.00000000E+00  0.00000000E+00
  0.00000000E+00  0.00000000E+00  0.00000000E+00
  0.00000000E+00  0.00000000E+00  0.00000000E+00
  0.00000000E+00  0.00000000E+00  0.00000000E+00
  0.00000000E+00  0.00000000E+00  0.00000000E+00
  0.00000000E+00  0.00000000E+00  0.00000000E+00
  0.00000000E+00  0.00000000E+00  0.00000000E+00
  0.00000000E+00  0.00000000E+00  0.00000000E+00
  0.00000000E+00  0.00000000E+00  0.00000000E+00
  0.00000000E+00  0.00000000E+00  0.00000000E+00
  0.00000000E+00  0.00000000E+00  0.00000000E+00
  0.00000000E+00  0.00000000E+00  0.00000000E+00
  0.00000000E+00  0.00000000E+00  0.00000000E+00
  0.00000000E+00  0.00000000E+00  0.00000000E+00
  0.00000000E+00  0.00000000E+00  0.00000000E+00
  0.00000000E+00  0.00000000E+00  0.00000000E+00
  0.00000000E+00  0.00000000E+00  0.00000000E+00
  0.00000000E+00  0.00000000E+00  0.00000000E+00
  0.00000000E+00  0.00000000E+00  0.00000000E+00
  0.00000000E+00  0.00000000E+00  0.00000000E+00
  0.00000000E+00  0.00000000E+00  0.00000000E+00
  0.00000000E+00  0.00000000E+00  0.00000000E+00
  0.00000000E+00  0.00000000E+00  0.00000000E+00
  0.00000000E+00  0.00000000E+00  0.00000000E+00
  0.00000000E+00  0.00000000E+00  0.00000000E+00
  0.00000000E+00  0.00000000E+00  0.00000000E+00
  0.00000000E+00  0.00000000E+00  0.00000000E+00
  0.00000000E+00  0.00000000E+00  0.00000000E+00
  0.00000000E+00  0.00000000E+00  0.00000000E+00
  0.00000000E+00  0.00000000E+00  0.00000000E+00
  0.00000000E+00  0.00000000E+00  0.00000000E+00
  0.00000000E+00  0.00000000E+00  0.00000000E+00
  0.00000000E+00  0.00000000E+00  0.00000000E+00
  0.00000000E+00  0.00000000E+00  0.00000000E+00
  0.00000000E+00  0.00000000E+00  0.00000000E+00
  0.00000000E+00  0.00000000E+00  0.00000000E+00
  0.00000000E+00  0.00000000E+00  0.00000000E+00
  0.00000000E+00  0.00000000E+00  0.00000000E+00
  0.00000000E+00  0.00000000E+00  0.00000000E+00
  0.00000000E+00  0.00000000E+00  0.00000000E+00
  0.00000000E+00  0.00000000E+00  0.00000000E+00
  0.00000000E+00  0.00000000E+00  0.00000000E+00
  0.00000000E+00  0.00000000E+00  0.00000000E+00
  0.00000000E+00  0.00000000E+00  0.00000000E+00
  0.00000000E+00  0.00000000E+00  0.00000000E+00
  0.00000000E+00  0.00000000E+00  0.00000000E+00
  0.00000000E+00  0.00000000E+00  0.00000000E+00
  0.00000000E+00  0.00000000E+00  0.00000000E+00
  0.00000000E+00  0.00000000E+00  0.00000000E+00
  0.00000000E+00  0.00000000E+00  0.00000000E+00
  0.00000000E+00  0.00000000E+00  0.00000000E+00
  0.00000000E+00  0.00000000E+00  0.00000000E+00
  0.00000000E+00  0.00000000E+00  0.00000000E+00
  0.00000000E+00  0.00000000E+00  0.00000000E+00
  0.00000000E+00  0.00000000E+00  0.00000000E+00
  0.00000000E+00  0.00000000E+00  0.00000000E+00
  0.00000000E+00  0.00000000E+00  0.00000000E+00
  0.00000000E+00  0.00000000E+00  0.00000000E+00
  0.00000000E+00  0.00000000E+00  0.00000000E+00
  0.00000000E+00  0.00000000E+00  0.00000000E+00