H    C    N    I    Pb
1
  18.0608005523681996   0.0000000000000000   0.0000000000000000
  -0.0049186488613486  18.0627994537354013   0.0000000000000000
   0.0000000000000000   0.0000000000000000  62.4874992370604971
H    C    N    I    Pb
143  39  47  72  24  
Direct
  0.4848932184960320  0.3357077554820040  0.5684130812107530  
  0.4218893196559770  0.7870099170501820  0.5784216452044010  
  0.9269176167985320  0.2642565142995500  0.5793035874121440  
  0.9202958099962980  0.8040678985697780  0.5711102811991300  
  0.2990997030304010  0.0870108602927271  0.5703868433525240  
  0.3246626405579590  0.5862910754730370  0.5738228092332230  
  0.7839578271588880  0.0946659906423643  0.5674919737901700  
  0.1121079261175390  0.2289996588606930  0.5593579351141830  
  0.0826158891161714  0.6866419306001130  0.5711663119607580  
  0.5470740744237990  0.1452559278785350  0.5611456037117220  
  0.5651998610876100  0.6728625388281950  0.5566602783578540  
  0.3729784373765990  0.0334115999860025  0.5608489508804509  
  0.3038186355474940  0.5756236749255580  0.5483937441667970  
  0.8651596746067740  0.0481844107944894  0.5597473707461280  
  0.0578332325068644  0.2207959699545960  0.5812373625566710  
  0.9895620790227190  0.6870865590381690  0.5787059453076030  
  0.5820915550403650  0.2330681128524420  0.5672767070692269  
  0.4840285873166020  0.6666367917455700  0.5706925347750670  
  0.2457955278001730  0.4932420348234260  0.5858635631393470  
  0.1773635918711040  0.0202046322806973  0.5743998426818200  
  0.6743781836741271  0.0104787071630010  0.5746553581646170  
  0.3946786594400680  0.3068776674639870  0.5621878469213070  
  0.4630522775623170  0.8647057364550750  0.5671172921819631  
  0.8967115277273709  0.2932109428677270  0.5555909131890200  
  0.9702493730349140  0.8738708883654410  0.5582916625296430  
  0.1757220845064700  0.4268185963407080  0.5640942761098110  
  0.1780122132061790  0.9281757554774290  0.5662593844404010  
  0.6868599984303970  0.9178411956433370  0.5667830705505370  
  0.4274592103401090  0.1864469272676640  0.5565998079048180  
  0.5565582561038710  0.7983393673094880  0.5517157879362290  
  0.0132764187669590  0.2738539206660760  0.5399629677517050  
  0.0768523603398347  0.8026115757506130  0.5557253632315280  
  0.2088618516706770  0.4747159156445330  0.5420764041898301  
  0.2999683494024570  0.9296477715053580  0.5561096521139570  
  0.8072321908827870  0.9346359078095630  0.5570433611456630  
  0.4129661717969640  0.2743844588404560  0.6680742901637650  
  0.4579570531728160  0.8053097527767250  0.6765616544666410  
  0.9470665753494339  0.3196282971965590  0.6732375889074680  
  0.9758054466983310  0.7757290374124099  0.6799812265539770  
  0.3052514181428640  0.0425577675577440  0.6765574491250320  
  0.3019960310492620  0.5451803065309430  0.6774394390661950  
  0.7921373194168870  0.0540635788437157  0.6789216475048500  
  0.8385563069190900  0.4959630168614290  0.6683767110941390  
  0.0772638431997263  0.1744435276683090  0.6574724859095640  
  0.0699141820591491  0.6946953050043830  0.6492198079448120  
  0.5910747629037690  0.1911633549582190  0.6562904594486439  
  0.5764113550140429  0.6736399802771250  0.6477776422303591  
  0.1789388739620530  0.4192390889386470  0.6484979581306980  
  0.1697455052656320  0.9289453577299100  0.6477113079093080  
  0.6444067286279800  0.4637842944923970  0.6561932867660090  
  0.6744473848490260  0.9254107324377440  0.6490380140878640  
  0.0503534981671512  0.2242645423385730  0.6797463029719060  
  0.0708404224479944  0.6880861077838020  0.6748971378368960  
  0.5136555729281680  0.1775051637398670  0.6715279612437640  
  0.5571912875867610  0.7013119900653860  0.6739057260468330  
  0.2088750904423460  0.4379693581264800  0.6744025715938810  
  0.2000244196724100  0.9454634463554730  0.6737423645090990  
  0.7182900780362540  0.4257302324464120  0.6701746058219850  
  0.6919961547412530  0.9531007301167320  0.6752795093455520  
  0.4302922445566780  0.3445476865856960  0.6505286772478180  
  0.4220003860336490  0.8333476311014170  0.6520205851472460  
  0.9207007806670220  0.3284340260539560  0.6465181603692010  
  0.9200600099774729  0.8307676690516830  0.6534657162669290  
  0.3316991231665000  0.0812993746994660  0.6522790251570720  
  0.3212187450571870  0.5901253951332460  0.6536291153919860  
  0.8338090046180890  0.0800606386081756  0.6550924897116270  
  0.8388546101052400  0.5732878178973611  0.6521295003677270  
  0.9984071947537290  0.2368640917659240  0.6345974125228940  
  0.9762461469231140  0.7844710908506610  0.6358602531290670  
  0.5434751257226630  0.2966217431254590  0.6408282824968780  
  0.4930939835915340  0.7531722338694330  0.6322688989040030  
  0.2491098742399840  0.0133260031035464  0.6323445232040620  
  0.2475476953563630  0.5127097522249460  0.6332679779268769  
  0.7623657264720110  0.0021285473148700  0.6342715693331660  
  0.7154865115444410  0.5586221869813500  0.6423709650130350  
  0.4507948697182590  0.2893551164292290  0.7766867550575530  
  0.4487917161274630  0.7959264113210920  0.7755746349752159  
  0.9543940757828040  0.2879332085601070  0.7778427652823480  
  0.9475904962557981  0.7996794408463600  0.7733002443131800  
  0.3057132536640770  0.0495808975974927  0.7754473118019500  
  0.2957688898081530  0.5555786641543660  0.7756085531023370  
  0.8021593061884480  0.0593085922373126  0.7746167558835110  
  0.8016469189059580  0.5537249184510770  0.7737107294674150  
  0.0832693384628639  0.1737576050701750  0.7476369340134400  
  0.0821940493975713  0.6750965380309299  0.7486457412605650  
  0.5826603863601830  0.1738240931350710  0.7481422378246509  
  0.5803803243927290  0.6749906066926150  0.7484600003399750  
  0.1728184540081900  0.4219103063539650  0.7500788536342470  
  0.1725429773207460  0.9265466303116260  0.7496522421494000  
  0.6710932719990410  0.4264696249041920  0.7483492344020030  
  0.6756580721469870  0.9225629841085240  0.7518878148439330  
  0.0551906754319991  0.1907045112905900  0.7738305247710460  
  0.0487670027000254  0.7005684660242480  0.7737334736576390  
  0.5494019765497270  0.1902240781298700  0.7737929554186610  
  0.5487180982694529  0.6963368749427460  0.7740656833713500  
  0.1970108721414770  0.4545494187048320  0.7753139106919330  
  0.2048494264335170  0.9506782922279690  0.7749815183809610  
  0.7004626111922040  0.4547089613578750  0.7736749932342341  
  0.7036018257272260  0.9582324153496100  0.7764142746120209  
  0.4283768302275370  0.3346044737323070  0.7531254360312341  
  0.4230428757633730  0.8330244596339200  0.7510276524879120  
  0.9268913293041180  0.3316662183915990  0.7544392308886650  
  0.9226358331287540  0.8311046062787359  0.7479911745294280  
  0.3316543468909170  0.0832135659454369  0.7505063416492040  
  0.3293671135076550  0.5812094035877891  0.7506075172751830  
  0.8304621767342339  0.0832369154921334  0.7489288840853090  
  0.8305257563578760  0.5826662208734080  0.7484495185623400  
  0.0052959255391274  0.2615703048285920  0.7329840451985060  
  0.0053252351638134  0.7550346740398970  0.7303223720630631  
  0.5090860254581380  0.2638926666739820  0.7326145847417730  
  0.5040692328706300  0.7593005947053540  0.7317362704622730  
  0.2499302958664580  0.0077806564956454  0.7319728539002730  
  0.2547826133230750  0.4985525786251870  0.7322411444650100  
  0.7533519876925320  0.9988677819073130  0.7322892126500510  
  0.7505995996740080  0.5048366476516600  0.7303816700212140  
  0.7032943078210090  0.4248421136516210  0.5289889702791740  
  0.7247560578936220  0.4641277667099660  0.5038328882737620  
  0.6480528183864320  0.5371233721430529  0.5406842383666660  
  0.6970649508817820  0.6219034847627580  0.5388718698626270  
  0.8426931243891770  0.5012944489755180  0.5525498325774439  
  0.7851017585570610  0.5762210606487120  0.5598402996434640  
  0.8662180595605710  0.5334051887700700  0.5179676419747820  
  0.7964973728925450  0.5679004355592160  0.5007020738001730  
  0.8591218753490960  0.4308607056782220  0.5086956422577020  
  0.8394845750388350  0.3975816124104190  0.5345225166622500  
  0.8468013712625410  0.2906864868489170  0.5135852310161960  
  0.7521101759111350  0.3028901590028480  0.5168067760751071  
  0.6310732680052880  0.5333915700543200  0.5010855920434080  
  0.6831490908564720  0.6168481224277370  0.4982771235579600  
  0.5984777591054460  0.6163045894880840  0.5124890207933750  
  0.7598772468336870  0.4725533552943690  0.5833334645851480  
  0.7413326376429490  0.4110884807713180  0.5621518621015520  
  0.6797513618512300  0.4857706028521070  0.5678146667795180  
  0.8041255245899510  0.6664891402273440  0.5377073576909280  
  0.8283571872106680  0.6858001998797170  0.5124256077601440  
  0.8917546225183910  0.6490999821119831  0.5296841464890060  
  0.8409910019484980  0.3448216290238430  0.4768475700091850  
  0.7880304120585000  0.2636568253926650  0.4802665669047750  
  0.6479991147574030  0.2906850750406770  0.4931452908367100  
  0.7846629876334940  0.4438848294470910  0.4589694474950420  
  0.5370698655917050  0.3621128667631210  0.4828972285270270  
  0.6735973209021460  0.5156216104284580  0.4485550645726300  
  0.5493627293817480  0.4755801961733250  0.4607715585657930  
  0.0046716582474091  0.2612872042348950  0.5560828854885570  
  0.0267994620030990  0.7788033235194670  0.5627210200155170  
  0.4705828814271580  0.2260549750256290  0.5608675518666760  
  0.5135602460748160  0.7694939309430510  0.5604032825768820  
  0.2485244799187380  0.5087271595899790  0.5690388960242900  
  0.2750616359725200  0.9802327201865100  0.5622663473244029  
  0.7756739880327480  0.9824719123694931  0.5624639987792860  
  0.9989129872036950  0.2511874268895280  0.6514995789773630  
  0.9981631190530300  0.7621241094828800  0.6649724755044610  
  0.5114092399746940  0.2682506646492890  0.6526165471230160  
  0.4989401895273590  0.7532431153780020  0.6496407189964650  
  0.2510246814133230  0.5039723581144250  0.6504636454879250  
  0.2506038246873420  0.0053749208331270  0.6496364553068120  
  0.7410172763477950  0.5192465696029620  0.6531837066075670  
  0.7541042153894790  0.0028831119416575  0.6515604074200519  
  0.5050932641292361  0.2540462738365310  0.7497423100291820  
  0.5017392251786770  0.7540356927224460  0.7490939727283900  
  0.0047611956032383  0.2526077622203720  0.7502304846783679  
  0.0023913894167994  0.7530165028846640  0.7477296422411640  
  0.2522514015192270  0.0046264118879966  0.7493848312667220  
  0.2512768541650990  0.5013494913030350  0.7496520419214570  
  0.7530186997543070  0.0028259502026466  0.7497023696579540  
  0.7507939493087510  0.5045573219791500  0.7478484516370110  
  0.7241344273667150  0.3625413381953170  0.4768010086185390  
  0.6537066140063820  0.3398256482507660  0.4832246307558970  
  0.7301590815033649  0.4257252678663930  0.4640977595479030  
  0.5912316847910560  0.3800844566336400  0.4775149953757600  
  0.6677185174394000  0.4661402436802780  0.4582764409491990  
  0.5980865395143640  0.4436682193660010  0.4650774989065590  
  0.7468215788747160  0.4525844596509140  0.5197561581251140  
  0.6854248700574040  0.5696763499368970  0.5305726806367570  
  0.7848534764512560  0.5199874035688200  0.5532811149034640  
  0.8169713901107900  0.5685250718885410  0.5171982834284610  
  0.8159735135224030  0.4041308462215230  0.5184015015167530  
  0.8007737229372480  0.3269493537150930  0.5090382067223210  
  0.6488037271411080  0.5840710036839960  0.5091947322654869  
  0.7380904893847360  0.4693789019769760  0.5670062817529510  
  0.8360421782033171  0.6464330360478699  0.5246693402556030  
  0.7915262741425080  0.3225737907803210  0.4847207949028130  
  0.0607528283149913  0.2341232592624340  0.5660182018469720  
  0.0319819111695086  0.7113087246934600  0.5701958254081230  
  0.5383660362629520  0.2008891956877310  0.5627038501034960  
  0.5191750413027350  0.6977950945877950  0.5618422128094800  
  0.4498132803294360  0.2951098187160600  0.5632659724955730  
  0.4606179665956190  0.8087197941926070  0.5685505942638160  
  0.9390396112330840  0.2743531684506460  0.5641229878392410  
  0.9661079613003900  0.8190440631129210  0.5626382959892010  
  0.2123281279229150  0.4628948052744630  0.5577594370180000  
  0.2044453760319640  0.9774082788680670  0.5671328794658200  
  0.7062617394218430  0.9709047547288920  0.5675031919329580  
  0.3172017839710740  0.0386884239636346  0.5639183008279250  
  0.2943588233506020  0.5605154024121830  0.5630855296937110  
  0.8096214641698400  0.0465010239097258  0.5630933987083150  
  0.0446940812467284  0.2144838118419520  0.6638294261928830  
  0.0495718840477403  0.7122547578231641  0.6627217991246330  
  0.5396997233342230  0.2077028229787380  0.6605297758057080  
  0.5466709245275621  0.7064750104026670  0.6578923351276370  
  0.2107560146853740  0.4504199663566560  0.6585073161834610  
  0.2042024426705200  0.9570960428081480  0.6577845832124640  
  0.6996604924698430  0.4646424842505050  0.6599158613870130  
  0.7043139283675360  0.9575472454921230  0.6593763677064370  
  0.4472643813387840  0.2970096325599550  0.6574689645054190  
  0.4571646752963780  0.7998357983651060  0.6603233362255710  
  0.9529555739405920  0.3028486825866260  0.6577478167184450  
  0.9589504413494930  0.7927233855393840  0.6503729409557890  
  0.2984081409293800  0.0455044365183154  0.6603964873878430  
  0.2947849200284070  0.5482428090767810  0.6613066783566121  
  0.7951343716756410  0.0488562234253682  0.6627077275304560  
  0.8107136531681109  0.5297807090499350  0.6582195012587480  
  0.0503135172827350  0.2026413463376960  0.7579013207715820  
  0.0469866234535405  0.7066740203087420  0.7575029858159320  
  0.5481040019326300  0.2027535364594890  0.7578930778973210  
  0.5460707557577770  0.7053568936008811  0.7579602714877340  
  0.2043482883095430  0.4565704405726300  0.7591110858299210  
  0.2073001507600070  0.9577302284901420  0.7587819659860870  
  0.7047398277804100  0.4591108476091680  0.7574277222056410  
  0.7079073312495370  0.9587784726965550  0.7601275763129260  
  0.4581944904895530  0.2947367195822710  0.7606160656400101  
  0.4552015521002810  0.7970160693852670  0.7593677371520480  
  0.9590550885253830  0.2929409812097650  0.7616460048529810  
  0.9546911634115440  0.7971590061074530  0.7571019082660360  
  0.2995106692273650  0.0482082355517457  0.7592121023281820  
  0.2947148398152490  0.5488728125205170  0.7593894485117890  
  0.7978612613414640  0.0513004455054265  0.7584833363463680  
  0.7970602468022880  0.5496601531511720  0.7574654468810760  
  0.7585871657181600  0.5277123677383120  0.5301524232044120  
  0.5071995941844590  0.9998018528451380  0.5553753031272510  
  0.4907247760882580  0.5008864894439340  0.5525223834545741  
  0.0024307967794367  0.0106924623891162  0.5533278818857640  
  0.0058974222585799  0.4869567340161150  0.5528498016251020  
  0.2557998378388900  0.2437123895925390  0.5541915593684070  
  0.2413615266438220  0.7679948888971760  0.5550149964789520  
  0.7391606522791740  0.2327870705872850  0.5566120121298030  
  0.7165452964737160  0.7793332757598430  0.5544572328361490  
  0.9993877505978590  0.0073649060754628  0.6554365862178591  
  0.0087438872809710  0.5107229334307630  0.6553165530311520  
  0.5004883030355730  0.0075098820177442  0.6574986144247170  
  0.5036746372265100  0.4969844447974140  0.6544532047105580  
  0.2483245132753910  0.2468772335239670  0.6562228617012690  
  0.2508669084799530  0.7503707450477720  0.6563033920192800  
  0.7390406832348180  0.2565800518367550  0.6567269891100200  
  0.7562573008594680  0.7405348261450519  0.6549935597079590  
  0.1392246609059550  0.1148275843388660  0.6070322443973640  
  0.1403867569902640  0.6140712454694870  0.6082990068005660  
  0.6458442440974770  0.1062913458462060  0.6084793754571730  
  0.6334996770283120  0.6176142095489490  0.6063960730344820  
  0.3571767431962320  0.3969586495141580  0.6079398743230980  
  0.3622875171543590  0.8920463384999100  0.6115814559884580  
  0.8669722012551110  0.3845681657684710  0.6101636160001230  
  0.8594838484413740  0.8926236449291670  0.6070575879395240  
  0.1168497734716680  0.3682560574314830  0.6080612694273700  
  0.1074669640269030  0.8664222656667160  0.6101532552558330  
  0.6004907820841699  0.3559522345730670  0.6013965757362700  
  0.6112099412825081  0.8665603085490600  0.6129042192221370  
  0.3905253951436580  0.1438325551588020  0.6100420800352280  
  0.3894446391939320  0.6459424682527430  0.6065812332277200  
  0.8906712411231170  0.1475697761197070  0.6091406885794211  
  0.8882262780033920  0.6435450290355870  0.6045724309569011  
  0.0010540355423059  0.9995772244579810  0.7558416134006020  
  0.9989233342253190  0.4948604872171860  0.7558078066375820  
  0.5033297196516470  0.9981010863022270  0.7571661413850590  
  0.4957269481363160  0.4982046810978860  0.7555361212889310  
  0.2555214112289640  0.2528344424610440  0.7564949857082290  
  0.2536502949804500  0.7533490284459680  0.7565298158187390  
  0.7551628139353360  0.2551226987765190  0.7567532536346280  
  0.7492824563848760  0.7548199158852140  0.7553778988669820  
  0.1425497534551030  0.1148787435345710  0.7074650552595760  
  0.1427842459719110  0.6160563041301820  0.7081936263500330  
  0.6464103415177490  0.1114019368825480  0.7072645211225260  
  0.6340831296558990  0.6205793838116330  0.7068353665573900  
  0.3562189879201820  0.3987743969448610  0.7043173807099240  
  0.3630381542836760  0.8963957959903380  0.7066136475007770  
  0.8625466759820390  0.3954829470247950  0.7033950867153060  
  0.8640247671532870  0.8921700632457790  0.7048048570687930  
  0.1122967137818910  0.3637458235325430  0.7063298969601260  
  0.1179783726943730  0.8712746588806890  0.7069997030023260  
  0.6141978309480590  0.3674478107534050  0.7077551579877410  
  0.6121962247407000  0.8639358781449870  0.7050495014528970  
  0.3958300597419400  0.1471143932453320  0.7060259539344300  
  0.3920130349172090  0.6446340845802641  0.7064192532877130  
  0.8924120664291340  0.1464515181871810  0.7074653239390780  
  0.8904399286212770  0.6419262003376220  0.7077153610476070  
  0.1492911375062050  0.1039853935652240  0.8024706888880970  
  0.1492095777173660  0.6038132025537990  0.8019246165025080  
  0.6506346340090510  0.1036797853990490  0.8029972258567880  
  0.6498844687136160  0.6024468164270520  0.8013314194273020  
  0.3501404877199380  0.4031080732703270  0.8038352020568880  
  0.3502415783859890  0.9036847313357830  0.8035371289757480  
  0.8483154701983370  0.4052326213591840  0.8036047207782250  
  0.8528486291208570  0.8999954375457661  0.8022072556683730  
  0.1038187761425890  0.3534412990365620  0.8034766202109400  
  0.1026542267561190  0.8527909774516400  0.8022315115424770  
  0.6028705837363110  0.3542542007186950  0.8027805595051700  
  0.6030346228293260  0.8524425594889400  0.8035984982873930  
  0.4041428102060720  0.1521045431022450  0.8031787139292830  
  0.4032445620202410  0.6533865123828670  0.8027761440086930  
  0.9013219526618240  0.1511193587386100  0.8034541770964080  
  0.9028007376586110  0.6527520253704020  0.8013088167957960  
  0.9962295979820560  0.0063308397326039  0.6047077689762000  
  0.9983056712860100  0.5004898902290340  0.6030888974133480  
  0.5002022416857370  0.0056318683099392  0.6077182989448150  
  0.5002656025878151  0.5008018286577540  0.6026134741989110  
  0.2536406198707300  0.2549746905964080  0.6055745335599499  
  0.2443073058183500  0.7580281076194640  0.6053679896104210  
  0.7446638572127570  0.2530909410350370  0.6061316638331350  
  0.7434368980167320  0.7560884009492570  0.6044040890006440  
  0.0011926907727105  0.0068123383744367  0.7055190203355710  
  0.0031035382426063  0.5073262905335690  0.7051618837335680  
  0.5045719592434500  0.0044875958937478  0.7072143110018790  
  0.5006577991341991  0.5040534670123490  0.7052431858320970  
  0.2523912262369150  0.2552948058965760  0.7063450697715590  
  0.2538238087251590  0.7566140891268670  0.7060707372033310  
  0.7503932501277140  0.2548710054154330  0.7065765846457680  
  0.7529019323702290  0.7531137356205549  0.7048617752241310  
  0.0030869850907254  0.0066953211233856  0.8040472055919450  
  0.0005233609510211  0.5088825242626560  0.8038747456432320  
  0.5030011859496450  0.0077823056047966  0.8053735779744350  
  0.5024753138982569  0.5079645419454391  0.8038202780970700  
  0.2491922346084220  0.2600311428389600  0.8047956604937350  
  0.2497838475756440  0.7582218509658760  0.8046637744466780  
  0.7493248690331790  0.2599279934056770  0.8049385168918860  
  0.7493882425326041  0.7583055631985290  0.8036100996151170  
