H    C    N    I    Pb                  
    1.000000000000000     
    18.0608005523681996    0.0000000000000000    0.0000000000000000
    -0.0049186488613486   18.0627994537354013    0.0000000000000000
     0.0000000000000000    0.0000000000000000   62.4874992370604971
   H    C    N    I    Pb
   143    39    47    72    24
Direct
  0.4884468051427229  0.3421715818916538  0.5637145239979852
  0.4088364085924457  0.7766349926836368  0.5691405513018081
  0.9263806013313076  0.2270882793751202  0.5762725341665211
  0.9130077190221029  0.7776645914822733  0.5700346753827561
  0.2722653945655228  0.0941694064962876  0.5695996685633814
  0.3166291497154360  0.6035036527647475  0.5611091170296707
  0.7827157008786494  0.0977232902827587  0.5635445697558078
  0.1133531741795248  0.2191181931895077  0.5551024628486131
  0.0985154215331816  0.7070222429863507  0.5621579072904771
  0.5452953622978092  0.1466932627178012  0.5622846578420123
  0.5949555844495690  0.7033922035512828  0.5627858336351652
  0.3567367404017436  0.0528051740033241  0.5620906532813470
  0.2243282993783768  0.6036080525805201  0.5538110942380619
  0.8627338469558404  0.0467496003696269  0.5568852759817955
  0.0395393252249185  0.1612448324953888  0.5621135140284059
  0.0095206601832688  0.6785925044176022  0.5703667562349937
  0.5849703370440394  0.2346967951823992  0.5644645014447405
  0.5046807213518256  0.6745299660739940  0.5694042981122492
  0.3182051902323048  0.4815293568204906  0.5713231292973383
  0.1665790208758745  0.0035573483804997  0.5746908365270722
  0.6725607258781028  0.0173155737868868  0.5740568966741784
  0.3968101155863915  0.3116625201770474  0.5613086201272063
  0.4432886270511772  0.8648200674423192  0.5624493724472717
  0.9279839401475929  0.3228389215914773  0.5749226928601748
  0.9437530961387485  0.8653874704587377  0.5615102758260818
  0.2120593389133458  0.4108525165805148  0.5714046742228029
  0.1870955007144904  0.9110419865240846  0.5677725985962371
  0.6825998687076604  0.9226825438486896  0.5682181694514399
  0.4260842850015209  0.1892325868889482  0.5598285413513981
  0.5618334807549693  0.8232712384303876  0.5567981701689274
  0.0450681099890516  0.3270995243329478  0.5597551953873776
  0.0617364589952138  0.8252437329234215  0.5543951890582712
  0.1558364785774047  0.4799625594223284  0.5606794785514401
  0.3073897117224912  0.9363990303589821  0.5590855840677400
  0.8020768646035388  0.9340731366236796  0.5570146251154084
  0.4075691444254551  0.2614741374075670  0.6566267559383714
  0.4813835640048012  0.8176999383903234  0.6743903614831767
  0.9471509306446503  0.3302994395086919  0.6679688515914058
  0.9956648307390423  0.7555965096771557  0.6840800688816210
  0.3083340112040789  0.0236247677346988  0.6770599663562660
  0.3171322953339974  0.5011552919868785  0.6757259528100988
  0.7860978805656864  0.0456014580766890  0.6789461218791805
  0.8443942016313243  0.5034383701220302  0.6590818037772621
  0.0753819836759868  0.1752801858488471  0.6652639950020268
  0.0638878855423426  0.7145504738744273  0.6421033663208584
  0.6010491541035110  0.1980104531524473  0.6596459184651343
  0.5703638012100516  0.6694931334479894  0.6444736058947688
  0.1623265334272473  0.4319871147543903  0.6445062525873962
  0.1675623324686639  0.9247073778545268  0.6466431843856376
  0.6479319731279437  0.4513169547458238  0.6566160097614977
  0.6730515728885867  0.9261034233867668  0.6448986036589299
  0.0488103525133621  0.2475895320400027  0.6819942154468551
  0.0818419710593264  0.6806614403918935  0.6678183237193490
  0.5117863654658750  0.1605651839545738  0.6585940802564159
  0.5706588860339126  0.7103492062857854  0.6698501121691355
  0.2321527175296416  0.4017439338218319  0.6615142278305010
  0.2027550518983402  0.9314775936453372  0.6725988939476997
  0.7352376971954347  0.4094331367197525  0.6588290045192653
  0.6875133683488036  0.9464365875794907  0.6718715666885510
  0.4416559739074361  0.3519795498852710  0.6564280952230821
  0.4228016321319847  0.8343712148489837  0.6526379855827638
  0.9254502133131087  0.3191287927054289  0.6409543791477751
  0.9252485841869524  0.8389348219358906  0.6651513804722660
  0.3283370508756428  0.0771383586708391  0.6545337583206164
  0.2997907390582886  0.5914081806566812  0.6662151578390271
  0.8312212258703318  0.0789457614862717  0.6563332582693275
  0.8163428354024892  0.5959310932409513  0.6568374426117726
  0.0024579278426932  0.2166606882562053  0.6368705772150114
  0.9643981174698826  0.8158097625486908  0.6404109481944406
  0.5632360509753506  0.3184546634808566  0.6584740840954809
  0.4742769468167602  0.7416333850590261  0.6319133901726914
  0.2414006840887403  0.0185225634441910  0.6333050994593064
  0.1994867718362297  0.5549941924972828  0.6457779819004346
  0.7627843431096125  0.0071441856648724  0.6328668954266796
  0.6932157822838985  0.5694314525732596  0.6548914830144704
  0.4561171241281929  0.2502306062152972  0.7818312308178667
  0.4542470446272626  0.7589314062445509  0.7806411580593309
  0.9569414603641092  0.2467442985303978  0.7831132099186696
  0.9496327333038016  0.7853603981112376  0.7762387815872843
  0.2936293519608001  0.0589501950564420  0.7755167187229730
  0.3005202270725580  0.5538164881068723  0.7738407993689376
  0.7716460485859820  0.0965981931763571  0.7680463715893927
  0.7961551407651344  0.5615245393041894  0.7717568717657179
  0.0838271333592524  0.1833341493164904  0.7419157808244340
  0.0819664796424801  0.6759305576364717  0.7456123163488548
  0.5840028036290739  0.1796867562668241  0.7419607737303309
  0.5761515957874404  0.6769401299373466  0.7411067839237366
  0.1692505125831805  0.4257349898350453  0.7491203600799948
  0.1728460256437975  0.9245984844946148  0.7491095795453547
  0.6703200042265502  0.4240676261870199  0.7488405173087440
  0.6914679322816644  0.9132352795751495  0.7633538007561633
  0.0608042320306329  0.1677360818927902  0.7686228438318820
  0.0514523556405804  0.6884303016935891  0.7718941585236341
  0.5598216770522247  0.1684918287545302  0.7687898086217112
  0.5524114562807161  0.6697293629597444  0.7680916339978183
  0.2007163854822742  0.4535031106333990  0.7742351426821277
  0.1925250873201558  0.9594268202176053  0.7745086011583080
  0.6950877854600559  0.4629194053980847  0.7734606779227717
  0.6815326149740575  0.9973998368715079  0.7772712058774712
  0.4312128206502337  0.3229918672901487  0.7649607202416596
  0.4329529556207579  0.8312413541248104  0.7631403066381065
  0.9326982732592344  0.3231365431378899  0.7674938805655698
  0.9255999918476823  0.8329671973132344  0.7530795471322872
  0.3310046190686289  0.0817641428943184  0.7506694184961846
  0.3270751375493509  0.5836060815250269  0.7484274933812614
  0.8346199797403984  0.0763567528574723  0.7477929608895028
  0.8284314175837894  0.5812529891443139  0.7460422133910145
  0.0076105262795586  0.2867472275339661  0.7389157712286765
  0.0059463195604980  0.7658334391217410  0.7315765978422284
  0.5071288899793150  0.2815275853688156  0.7371046300157432
  0.5051352511571997  0.7821170493500523  0.7355419774514451
  0.2585593771584828 -0.0014813605353679  0.7320573303960444
  0.2466769258385703  0.5054800023647248  0.7307351976263701
  0.7884951110203944  0.9573478939211743  0.7425655724522592
  0.7525857454097659  0.4955808946437155  0.7295804009293666
  0.7031453441065102  0.4291708820956638  0.5258853284068478
  0.7389070376100724  0.4700133651533128  0.5023451737147787
  0.6544432220400436  0.5425430275294264  0.5359293414011966
  0.7115421456182682  0.6214356499288154  0.5398049677882534
  0.8379633614667118  0.4838171922315550  0.5553343370487807
  0.7883967180688602  0.5650287042319647  0.5618555543714445
  0.8825308552752936  0.5236312352931520  0.5240402097354911
  0.8260937274113296  0.5616425010320918  0.5034369195693675
  0.8666419494070089  0.4212085996529760  0.5116570697089560
  0.8294000380871173  0.3804067142871147  0.5350164365623090
  0.8405984365817174  0.2861024930972352  0.5090222364499163
  0.7460296118410111  0.3019795371240081  0.5125639078481922
  0.6656389941505885  0.5565652914697750  0.4958538834027748
  0.7243481499356296  0.6351599288151715  0.4995822145096944
  0.6316711688460607  0.6369983850654050  0.5085760824354119
  0.7383139119387094  0.4644880021510366  0.5827382134224539
  0.7240937367678595  0.4064999388510713  0.5604088052634768
  0.6686722855721788  0.4873515402432164  0.5642131674102967
  0.8126985680520512  0.6793658878306486  0.5254861472129835
  0.9067395089042357  0.6548598152317423  0.5210729846457307
  0.8658682300421918  0.6380355399560024  0.5462898636452507
  0.8378144082569559  0.3642250170478345  0.4750397579496174
  0.7886063981278569  0.2800656638765710  0.4743892174883823
  0.6440118272959927  0.3056889175395779  0.4917106243709338
  0.7788301621759840  0.4558536149929778  0.4550085099553233
  0.5316319732678211  0.3738974593709607  0.4806764034595765
  0.6660237850517501  0.5238325992849979  0.4436608530046969
  0.5417971509051434  0.4836555960506018  0.4566535654042926
  0.0195758330229661  0.2733718155251486  0.5630122111173106
  0.0206387903239142  0.7854836546679484  0.5601032410794818
  0.4710672648393573  0.2292864458347489  0.5613036023249065
  0.5188516821149867  0.7835978924632946  0.5612671376874925
  0.2668964730029399  0.5050903950129965  0.5650095276901093
  0.2714813322165633  0.9819456842505339  0.5640064236664177
  0.7718784888781544  0.9842111578355358  0.5613867666577024
  0.0010829203803191  0.2458786996311156  0.6521693664989699
  0.0031651166987640  0.7595224301652606  0.6667847799322065
  0.5213051043525959  0.2749499842697120  0.6581240961648178
  0.4948970548241844  0.7506917489031322  0.6481449738533136
  0.2299478607619290  0.5135852081114638  0.6550255008058989
  0.2473384637992429  0.0020048378873774  0.6500330268237821
  0.7321904458496254  0.5236003226305368  0.6564458340566692
  0.7524282230493882  0.0027096437000547  0.6500210345840709
  0.5067125502449512  0.2523769433406348  0.7524204896121648
  0.5037330745180963  0.7548865116814442  0.7511516860183715
  0.0074385894200401  0.2546150256532868  0.7537310083342963
  0.0031774692526017  0.7539737087826552  0.7486735777536161
  0.2521232631424763  0.0030397940726357  0.7493682779461405
  0.2481910672275992  0.5047163129246336  0.7481866686863388
  0.7631493211378796  0.9932662688071728  0.7545999346835460
  0.7496000953750599  0.5022827002200846  0.7469338512987730
  0.7197217056707258  0.3762132660878235  0.4742571225611153
  0.6492744561937416  0.3536516230661739  0.4811796132864100
  0.7244990552251174  0.4377129695432324  0.4606401303877141
  0.5857587223256818  0.3919679941628372  0.4749478236709887
  0.6609878037197966  0.4761131924041498  0.4542560970162205
  0.5913634222149823  0.4536060110971574  0.4614920691238618
  0.7530334589887741  0.4532093586339799  0.5186524318392152
  0.7005471645059584  0.5743468358863498  0.5291190542354228
  0.7833010983576741  0.5102542081181971  0.5544197957557668
  0.8361892575145671  0.5611555044696090  0.5207709965576294
  0.8160437386060251  0.3970633638153144  0.5185276021752485
  0.7966072051524759  0.3267653957559219  0.5058862084964788
  0.6806746385830300  0.6014049713152929  0.5068788299692203
  0.7247491160611971  0.4645408475186649  0.5656227871906376
  0.8551564475893688  0.6377215585921331  0.5289905686305484
  0.7886404245621370  0.3358785403551286  0.4815243170372757
  0.0583059852913766  0.2134529802958413  0.5588161245758462
  0.0429209340365768  0.7171404820106245  0.5631746099585594
  0.5386744702304925  0.2028842452080570  0.5622723202838013
  0.5395231959584900  0.7143599788553358  0.5635253798164911
  0.4520102746381609  0.2993850802535659  0.5616544933193907
  0.4510648786791946  0.8088332054206779  0.5635230253682464
  0.9512832415747536  0.2738284684354976  0.5702739674395924
  0.9527044690985675  0.8096759330760450  0.5629204895473038
  0.2080231403527980  0.4627920653762705  0.5651352155491184
  0.2023003324362729  0.9654905444157790  0.5682723830547051
  0.7023953761855568  0.9754999527681104  0.5670616933170723
  0.3008269125225780  0.0484242259923495  0.5647118920400618
  0.2698863339169030  0.5737014539370812  0.5579582574790319
  0.8070589150339503  0.0476197489001110  0.5602027023247732
  0.0445289841548145  0.2217221322424113  0.6674950636497106
  0.0523937525513008  0.7152816916329571  0.6580786131812262
  0.5451257101574521  0.2064372450368196  0.6589439780479081
  0.5480933525673590  0.7068994306074151  0.6548997777606637
  0.2061807124375629  0.4449361260470003  0.6541054960297262
  0.2039032237168746  0.9489509086367717  0.6570370882857598
  0.7043360944957473  0.4565286800260826  0.6571579987855131
  0.7017683980186080  0.9552410410965901  0.6562391922024429
  0.4520329234260667  0.2964877113059595  0.6570566437124842
  0.4636511952379296  0.8034191023633621  0.6594140530551498
  0.9553479366240140  0.3019866065478136  0.6539580771957358
  0.9615919706928211  0.8074273596843095  0.6565327000154311
  0.2964320377192573  0.0376975202897000  0.6616016084077331
  0.2876695427570948  0.5361318150937158  0.6659797557435704
  0.7919626105368247  0.0451764628228335  0.6627144122098843
  0.8026635444995602  0.5410332896898944  0.6572727975805527
  0.0524447947905411  0.1975972769518105  0.7548643013645713
  0.0476421908378128  0.7025274152913453  0.7560737545514444
  0.5518048094401695  0.1957090897621200  0.7545525389732892
  0.5455274542589572  0.6959927256948272  0.7536951243290042
  0.2033300167133977  0.4585417660166450  0.7579741329598726
  0.2026312610875901  0.9599723814530563  0.7584330808571644
  0.7024869953928737  0.4600854309049197  0.7572858378824222
  0.7066220563933163  0.9671884500064624  0.7653848495897174
  0.4622597025894247  0.2768123987326866  0.7674300027215816
  0.4610962105924513  0.7834773560929664  0.7659858207621599
  0.9631493014003658  0.2760994723693139  0.7691464775615785
  0.9562539094584034  0.7926956431195387  0.7601500539316570
  0.2948537311696892  0.0506241894745667  0.7593500923762567
  0.2946572572319413  0.5500620487528056  0.7576145115846015
  0.7914372085124639  0.0597099318462734  0.7570976206065084
  0.7935642288609221  0.5516664422969967  0.7556679983341956
  0.7684678347723347  0.5246865303405580  0.5307003821463055
  0.4918418253478591  0.0051065595896351  0.5555643824412343
  0.4951775964266699  0.4980372528198828  0.5528622595340912
  0.9995906257430545  0.0050427001084765  0.5542718987423195
  0.0137731137508963  0.4883427309444272  0.5527593832172248
  0.2553569081014139  0.2546488457185460  0.5552727841884655
  0.2349380309674797  0.7721446439255362  0.5544742526854637
  0.7390267218123306  0.2351858883325401  0.5560241703980912
  0.7255698163993632  0.7805615802333107  0.5541623238079613
  0.0048129403082525  0.0204849613057131  0.6559546607847270
  0.0036092601315165  0.5133266004125805  0.6546541276886820
  0.4983823058139404  0.0125788476388016  0.6577058206465758
  0.5053750882400615  0.4951108596661609  0.6554723923902266
  0.2531991185930944  0.2449345622494109  0.6572666094474061
  0.2614806326718783  0.7329701245385244  0.6558199700032842
  0.7410493859332666  0.2535666606767306  0.6571110832840963
  0.7632176341276731  0.7363541807358199  0.6547752866078395
  0.1399727877703495  0.1103044612280530  0.6043215368432416
  0.1367612016311797  0.6133741814686429  0.6051150541592595
  0.6415250794664802  0.1051022053618133  0.6073407112391013
  0.6371600520112810  0.6113226926757580  0.6067834834356733
  0.3526110037540744  0.3972854083554564  0.6091326955026737
  0.3562965728280045  0.8925966497529924  0.6109247388865855
  0.8566525909523169  0.3920514109479158  0.6092775616330421
  0.8566116388692055  0.8929633675147333  0.6081629837637417
  0.1042817297164603  0.3590111090936663  0.6085568062010958
  0.1014583857886284  0.8566582218907911  0.6118315248536210
  0.5934065595924123  0.3496436139828549  0.6044251457549181
  0.6058021911343967  0.8624717318381594  0.6106134559149091
  0.3906461066340203  0.1462662069751216  0.6112035151165147
  0.3923857733223594  0.6486600249125893  0.5991087224440687
  0.8841651997989288  0.1411817625065520  0.6088884222862302
  0.8891670705624696  0.6465493609103526  0.5964225250959929
  0.9874288448247701  0.9950488199214667  0.7561997878444685
  0.9922713593614144  0.4767554914101813  0.7552745157558520
  0.4957877067527340  0.9842913975484672  0.7577231336477159
  0.4917220153175311  0.4831405991254725  0.7564369232816279
  0.2555554471720081  0.2560111958915658  0.7576601011481234
  0.2553448787720556  0.7555920423907134  0.7562106217962755
  0.7558210195234510  0.2581145949496466  0.7580498275686287
  0.7437763086185443  0.7730861890588149  0.7550915857792599
  0.1480402817624162  0.1113182233411534  0.7075838140374061
  0.1349703549251529  0.6231069452619882  0.7067157479446766
  0.6549953509521985  0.1041879150494143  0.7082534900389106
  0.6397603838718238  0.6163711086559955  0.7052017954927691
  0.3571819344844841  0.3990687866787651  0.7040267344174512
  0.3587960443187745  0.9019661279421860  0.7037468396629611
  0.8621526703410540  0.3953891001420696  0.6995607294917091
  0.8638383743524867  0.8939727094196698  0.7023431438209844
  0.1122058834857153  0.3619293670074936  0.7067536494977492
  0.1184827563523662  0.8699757858047084  0.7067915100497464
  0.6146213888213804  0.3646310003010659  0.7086070405547892
  0.6052238870608376  0.8564142751073596  0.7009430389108724
  0.3965921197133013  0.1452966852593753  0.7094108667036718
  0.3940003809247391  0.6441890628612127  0.7090573720559119
  0.8965391836719178  0.1486037185406253  0.7079323634077437
  0.8904390906778048  0.6426652207409237  0.7098119061005416
  0.1418846602802334  0.1045939308500172  0.8008634890236129
  0.1444346271550495  0.6044484958032037  0.7997990345176518
  0.6371056339829974  0.1085039368357403  0.8017441021095364
  0.6437993434941709  0.6037899219621162  0.7984902362313820
  0.3449590323984426  0.4048850033141344  0.8046939299691311
  0.3429339375233665  0.9044688517117569  0.8048761066512168
  0.8436226386484658  0.4085691926033122  0.8047202118979812
  0.8544888283993614  0.8931208712682724  0.8066767372559374
  0.1040879084676136  0.3579068016549115  0.8063101458991323
  0.1001831850506391  0.8531220285331420  0.8020716181173031
  0.6016501620912328  0.3557353322375906  0.8062250819756813
  0.6015874071827236  0.8527216460274055  0.8074790048242380
  0.3929756374399279  0.1437735276878792  0.8061421520835970
  0.3949057747620764  0.6466604900050802  0.8039681673266091
  0.8925620801407610  0.1451314023407523  0.8074880784920055
  0.8958638444897037  0.6484094487338457  0.7990853556052731
  0.9949768915901818  0.0026910533467395  0.6059156421682595
  0.9967790041754068  0.5025120511412303  0.6032612906037307
  0.4949006353750031  0.0047784863526098  0.6071810672870159
  0.4988044731603214  0.4979646043615278  0.6024275499730575
  0.2500040289380847  0.2545442040322389  0.6061113988176865
  0.2470064777668870  0.7531189414705501  0.6055860478882892
  0.7392002512563111  0.2526859467359498  0.6052849324311741
  0.7439056562289317  0.7531606805769393  0.6041213314094140
  0.0041667685235162  0.0087875476855277  0.7058467064445789
  0.0023137586389971  0.5045173767826472  0.7051253918122330
  0.5076532897192337  0.0074849978767336  0.7078072192737621
  0.5023962913061828  0.5033299629634485  0.7060601468740826
  0.2558264875537308  0.2543364693309119  0.7073956026601400
  0.2583380479685868  0.7573680697278402  0.7060837562873424
  0.7548893126122035  0.2549817263812387  0.7071459646178331
  0.7534691926870897  0.7538553292867304  0.7045603765739236
 -0.0017315755894488  0.0068862886758279  0.8045783457352775
  0.0013290525696721  0.5087611572526980  0.8028467717023049
  0.4979900285005847  0.0020816929592094  0.8059777029461827
  0.5007595274799421  0.5068535257655657  0.8042638687782048
  0.2471510646835949  0.2627478765112854  0.8058134064465884
  0.2457372132125711  0.7617532553338039  0.8043836124863669
  0.7484450768266191  0.2676815686073694  0.8063286448890818
  0.7476575287619198  0.7599201484814055  0.8036315966289134
 
  0.00000000E+00  0.00000000E+00  0.00000000E+00
  0.00000000E+00  0.00000000E+00  0.00000000E+00
  0.00000000E+00  0.00000000E+00  0.00000000E+00
  0.00000000E+00  0.00000000E+00  0.00000000E+00
  0.00000000E+00  0.00000000E+00  0.00000000E+00
  0.00000000E+00  0.00000000E+00  0.00000000E+00
  0.00000000E+00  0.00000000E+00  0.00000000E+00
  0.00000000E+00  0.00000000E+00  0.00000000E+00
  0.00000000E+00  0.00000000E+00  0.00000000E+00
  0.00000000E+00  0.00000000E+00  0.00000000E+00
  0.00000000E+00  0.00000000E+00  0.00000000E+00
  0.00000000E+00  0.00000000E+00  0.00000000E+00
  0.00000000E+00  0.00000000E+00  0.00000000E+00
  0.00000000E+00  0.00000000E+00  0.00000000E+00
  0.00000000E+00  0.00000000E+00  0.00000000E+00
  0.00000000E+00  0.00000000E+00  0.00000000E+00
  0.00000000E+00  0.00000000E+00  0.00000000E+00
  0.00000000E+00  0.00000000E+00  0.00000000E+00
  0.00000000E+00  0.00000000E+00  0.00000000E+00
  0.00000000E+00  0.00000000E+00  0.00000000E+00
  0.00000000E+00  0.00000000E+00  0.00000000E+00
  0.00000000E+00  0.00000000E+00  0.00000000E+00
  0.00000000E+00  0.00000000E+00  0.00000000E+00
  0.00000000E+00  0.00000000E+00  0.00000000E+00
  0.00000000E+00  0.00000000E+00  0.00000000E+00
  0.00000000E+00  0.00000000E+00  0.00000000E+00
  0.00000000E+00  0.00000000E+00  0.00000000E+00
  0.00000000E+00  0.00000000E+00  0.00000000E+00
  0.00000000E+00  0.00000000E+00  0.00000000E+00
  0.00000000E+00  0.00000000E+00  0.00000000E+00
  0.00000000E+00  0.00000000E+00  0.00000000E+00
  0.00000000E+00  0.00000000E+00  0.00000000E+00
  0.00000000E+00  0.00000000E+00  0.00000000E+00
  0.00000000E+00  0.00000000E+00  0.00000000E+00
  0.00000000E+00  0.00000000E+00  0.00000000E+00
  0.00000000E+00  0.00000000E+00  0.00000000E+00
  0.00000000E+00  0.00000000E+00  0.00000000E+00
  0.00000000E+00  0.00000000E+00  0.00000000E+00
  0.00000000E+00  0.00000000E+00  0.00000000E+00
  0.00000000E+00  0.00000000E+00  0.00000000E+00
  0.00000000E+00  0.00000000E+00  0.00000000E+00
  0.00000000E+00  0.00000000E+00  0.00000000E+00
  0.00000000E+00  0.00000000E+00  0.00000000E+00
  0.00000000E+00  0.00000000E+00  0.00000000E+00
  0.00000000E+00  0.00000000E+00  0.00000000E+00
  0.00000000E+00  0.00000000E+00  0.00000000E+00
  0.00000000E+00  0.00000000E+00  0.00000000E+00
  0.00000000E+00  0.00000000E+00  0.00000000E+00
  0.00000000E+00  0.00000000E+00  0.00000000E+00
  0.00000000E+00  0.00000000E+00  0.00000000E+00
  0.00000000E+00  0.00000000E+00  0.00000000E+00
  0.00000000E+00  0.00000000E+00  0.00000000E+00
  0.00000000E+00  0.00000000E+00  0.00000000E+00
  0.00000000E+00  0.00000000E+00  0.00000000E+00
  0.00000000E+00  0.00000000E+00  0.00000000E+00
  0.00000000E+00  0.00000000E+00  0.00000000E+00
  0.00000000E+00  0.00000000E+00  0.00000000E+00
  0.00000000E+00  0.00000000E+00  0.00000000E+00
  0.00000000E+00  0.00000000E+00  0.00000000E+00
  0.00000000E+00  0.00000000E+00  0.00000000E+00
  0.00000000E+00  0.00000000E+00  0.00000000E+00
  0.00000000E+00  0.00000000E+00  0.00000000E+00
  0.00000000E+00  0.00000000E+00  0.00000000E+00
  0.00000000E+00  0.00000000E+00  0.00000000E+00
  0.00000000E+00  0.00000000E+00  0.00000000E+00
  0.00000000E+00  0.00000000E+00  0.00000000E+00
  0.00000000E+00  0.00000000E+00  0.00000000E+00
  0.00000000E+00  0.00000000E+00  0.00000000E+00
  0.00000000E+00  0.00000000E+00  0.00000000E+00
  0.00000000E+00  0.00000000E+00  0.00000000E+00
  0.00000000E+00  0.00000000E+00  0.00000000E+00
  0.00000000E+00  0.00000000E+00  0.00000000E+00
  0.00000000E+00  0.00000000E+00  0.00000000E+00
  0.00000000E+00  0.00000000E+00  0.00000000E+00
  0.00000000E+00  0.00000000E+00  0.00000000E+00
  0.00000000E+00  0.00000000E+00  0.00000000E+00
  0.00000000E+00  0.00000000E+00  0.00000000E+00
  0.00000000E+00  0.00000000E+00  0.00000000E+00
  0.00000000E+00  0.00000000E+00  0.00000000E+00
  0.00000000E+00  0.00000000E+00  0.00000000E+00
  0.00000000E+00  0.00000000E+00  0.00000000E+00
  0.00000000E+00  0.00000000E+00  0.00000000E+00
  0.00000000E+00  0.00000000E+00  0.00000000E+00
  0.00000000E+00  0.00000000E+00  0.00000000E+00
  0.00000000E+00  0.00000000E+00  0.00000000E+00
  0.00000000E+00  0.00000000E+00  0.00000000E+00
  0.00000000E+00  0.00000000E+00  0.00000000E+00
  0.00000000E+00  0.00000000E+00  0.00000000E+00
  0.00000000E+00  0.00000000E+00  0.00000000E+00
  0.00000000E+00  0.00000000E+00  0.00000000E+00
  0.00000000E+00  0.00000000E+00  0.00000000E+00
  0.00000000E+00  0.00000000E+00  0.00000000E+00
  0.00000000E+00  0.00000000E+00  0.00000000E+00
  0.00000000E+00  0.00000000E+00  0.00000000E+00
  0.00000000E+00  0.00000000E+00  0.00000000E+00
  0.00000000E+00  0.00000000E+00  0.00000000E+00
  0.00000000E+00  0.00000000E+00  0.00000000E+00
  0.00000000E+00  0.00000000E+00  0.00000000E+00
  0.00000000E+00  0.00000000E+00  0.00000000E+00
  0.00000000E+00  0.00000000E+00  0.00000000E+00
  0.00000000E+00  0.00000000E+00  0.00000000E+00
  0.00000000E+00  0.00000000E+00  0.00000000E+00
  0.00000000E+00  0.00000000E+00  0.00000000E+00
  0.00000000E+00  0.00000000E+00  0.00000000E+00
  0.00000000E+00  0.00000000E+00  0.00000000E+00
  0.00000000E+00  0.00000000E+00  0.00000000E+00
  0.00000000E+00  0.00000000E+00  0.00000000E+00
  0.00000000E+00  0.00000000E+00  0.00000000E+00
  0.00000000E+00  0.00000000E+00  0.00000000E+00
  0.00000000E+00  0.00000000E+00  0.00000000E+00
  0.00000000E+00  0.00000000E+00  0.00000000E+00
  0.00000000E+00  0.00000000E+00  0.00000000E+00
  0.00000000E+00  0.00000000E+00  0.00000000E+00
  0.00000000E+00  0.00000000E+00  0.00000000E+00
  0.00000000E+00  0.00000000E+00  0.00000000E+00
  0.00000000E+00  0.00000000E+00  0.00000000E+00
  0.00000000E+00  0.00000000E+00  0.00000000E+00
  0.00000000E+00  0.00000000E+00  0.00000000E+00
  0.00000000E+00  0.00000000E+00  0.00000000E+00
  0.00000000E+00  0.00000000E+00  0.00000000E+00
  0.00000000E+00  0.00000000E+00  0.00000000E+00
  0.00000000E+00  0.00000000E+00  0.00000000E+00
  0.00000000E+00  0.00000000E+00  0.00000000E+00
  0.00000000E+00  0.00000000E+00  0.00000000E+00
  0.00000000E+00  0.00000000E+00  0.00000000E+00
  0.00000000E+00  0.00000000E+00  0.00000000E+00
  0.00000000E+00  0.00000000E+00  0.00000000E+00
  0.00000000E+00  0.00000000E+00  0.00000000E+00
  0.00000000E+00  0.00000000E+00  0.00000000E+00
  0.00000000E+00  0.00000000E+00  0.00000000E+00
  0.00000000E+00  0.00000000E+00  0.00000000E+00
  0.00000000E+00  0.00000000E+00  0.00000000E+00
  0.00000000E+00  0.00000000E+00  0.00000000E+00
  0.00000000E+00  0.00000000E+00  0.00000000E+00
  0.00000000E+00  0.00000000E+00  0.00000000E+00
  0.00000000E+00  0.00000000E+00  0.00000000E+00
  0.00000000E+00  0.00000000E+00  0.00000000E+00
  0.00000000E+00  0.00000000E+00  0.00000000E+00
  0.00000000E+00  0.00000000E+00  0.00000000E+00
  0.00000000E+00  0.00000000E+00  0.00000000E+00
  0.00000000E+00  0.00000000E+00  0.00000000E+00
  0.00000000E+00  0.00000000E+00  0.00000000E+00
  0.00000000E+00  0.00000000E+00  0.00000000E+00
  0.00000000E+00  0.00000000E+00  0.00000000E+00
  0.00000000E+00  0.00000000E+00  0.00000000E+00
  0.00000000E+00  0.00000000E+00  0.00000000E+00
  0.00000000E+00  0.00000000E+00  0.00000000E+00
  0.00000000E+00  0.00000000E+00  0.00000000E+00
  0.00000000E+00  0.00000000E+00  0.00000000E+00
  0.00000000E+00  0.00000000E+00  0.00000000E+00
  0.00000000E+00  0.00000000E+00  0.00000000E+00
  0.00000000E+00  0.00000000E+00  0.00000000E+00
  0.00000000E+00  0.00000000E+00  0.00000000E+00
  0.00000000E+00  0.00000000E+00  0.00000000E+00
  0.00000000E+00  0.00000000E+00  0.00000000E+00
  0.00000000E+00  0.00000000E+00  0.00000000E+00
  0.00000000E+00  0.00000000E+00  0.00000000E+00
  0.00000000E+00  0.00000000E+00  0.00000000E+00
  0.00000000E+00  0.00000000E+00  0.00000000E+00
  0.00000000E+00  0.00000000E+00  0.00000000E+00
  0.00000000E+00  0.00000000E+00  0.00000000E+00
  0.00000000E+00  0.00000000E+00  0.00000000E+00
  0.00000000E+00  0.00000000E+00  0.00000000E+00
  0.00000000E+00  0.00000000E+00  0.00000000E+00
  0.00000000E+00  0.00000000E+00  0.00000000E+00
  0.00000000E+00  0.00000000E+00  0.00000000E+00
  0.00000000E+00  0.00000000E+00  0.00000000E+00
  0.00000000E+00  0.00000000E+00  0.00000000E+00
  0.00000000E+00  0.00000000E+00  0.00000000E+00
  0.00000000E+00  0.00000000E+00  0.00000000E+00
  0.00000000E+00  0.00000000E+00  0.00000000E+00
  0.00000000E+00  0.00000000E+00  0.00000000E+00
  0.00000000E+00  0.00000000E+00  0.00000000E+00
  0.00000000E+00  0.00000000E+00  0.00000000E+00
  0.00000000E+00  0.00000000E+00  0.00000000E+00
  0.00000000E+00  0.00000000E+00  0.00000000E+00
  0.00000000E+00  0.00000000E+00  0.00000000E+00
  0.00000000E+00  0.00000000E+00  0.00000000E+00
  0.00000000E+00  0.00000000E+00  0.00000000E+00
  0.00000000E+00  0.00000000E+00  0.00000000E+00
  0.00000000E+00  0.00000000E+00  0.00000000E+00
  0.00000000E+00  0.00000000E+00  0.00000000E+00
  0.00000000E+00  0.00000000E+00  0.00000000E+00
  0.00000000E+00  0.00000000E+00  0.00000000E+00
  0.00000000E+00  0.00000000E+00  0.00000000E+00
  0.00000000E+00  0.00000000E+00  0.00000000E+00
  0.00000000E+00  0.00000000E+00  0.00000000E+00
  0.00000000E+00  0.00000000E+00  0.00000000E+00
  0.00000000E+00  0.00000000E+00  0.00000000E+00
  0.00000000E+00  0.00000000E+00  0.00000000E+00
  0.00000000E+00  0.00000000E+00  0.00000000E+00
  0.00000000E+00  0.00000000E+00  0.00000000E+00
  0.00000000E+00  0.00000000E+00  0.00000000E+00
  0.00000000E+00  0.00000000E+00  0.00000000E+00
  0.00000000E+00  0.00000000E+00  0.00000000E+00
  0.00000000E+00  0.00000000E+00  0.00000000E+00
  0.00000000E+00  0.00000000E+00  0.00000000E+00
  0.00000000E+00  0.00000000E+00  0.00000000E+00
  0.00000000E+00  0.00000000E+00  0.00000000E+00
  0.00000000E+00  0.00000000E+00  0.00000000E+00