H    C    N    I    Pb                  
    1.000000000000000     
    18.0608005523681996    0.0000000000000000    0.0000000000000000
    -0.0049186488613486   18.0627994537354013    0.0000000000000000
     0.0000000000000000    0.0000000000000000   62.4874992370604971
   H    C    N    I    Pb
   143    39    47    72    24
Direct
  0.4895436002731022  0.3429045874446466  0.5642043852887910
  0.4008088142781787  0.7805881262187003  0.5662079609016262
  0.9312967763790524  0.2102750236040848  0.5782283216253427
  0.9198174263045247  0.7822052103872086  0.5694173284360774
  0.2744518096892287  0.0964527790333939  0.5657059142349791
  0.3183764653889530  0.5941174578685527  0.5666341356923332
  0.7829031701491542  0.0980225880313601  0.5640792355885472
  0.1165062581701351  0.2445980775851204  0.5571224552199576
  0.1016898913519731  0.7017734509260087  0.5622086461202128
  0.5469799776586042  0.1476953258230582  0.5634509454119718
  0.5869006739419791  0.7004355027885582  0.5657250585232779
  0.3576117404088663  0.0493070249590582  0.5601951159142398
  0.2518608484601629  0.5832370274641561  0.5465566035989307
  0.8628538177701603  0.0474878805891837  0.5570502892731645
  0.0666735473342711  0.1817978976270181  0.5723153662493640
  0.0113097528012124  0.6786887626927796  0.5704568527563699
  0.5855756112241395  0.2360571385721760  0.5660741113612917
  0.4945103307001105  0.6750442861147425  0.5703471212448766
  0.2810591990502211  0.4931293804638461  0.5857716296744317
  0.1653476064973634  0.0101222524295077  0.5737475398084192
  0.6730756324552190  0.0166832883934778  0.5744952710255911
  0.3981098169015618  0.3122335564697312  0.5610767781130389
  0.4417214628876738  0.8671051813262269  0.5611159957621011
  0.8978097739613273  0.2886518225077462  0.5655519848771042
  0.9546680883837334  0.8677101284127144  0.5601777403957436
  0.1769903355322075  0.4267432370801618  0.5770840460681994
  0.1832276284847751  0.9157745366478349  0.5698979815514528
  0.6833753670895762  0.9223258510217739  0.5681208652177430
  0.4276314880790073  0.1899024241586469  0.5598592962134720
  0.5598363423658311  0.8216994812835878  0.5591593728604773
  0.0124651610227830  0.3203239239752147  0.5508664613251417
  0.0707311089505898  0.8212776322983264  0.5535636720382562
  0.1578935968964423  0.4763916076543602  0.5540839922619594
  0.3046839418074585  0.9339026338301838  0.5607587997160987
  0.8026446006328897  0.9348434386207887  0.5568547209183948
  0.4041708919466876  0.2632812692729266  0.6573818397286685
  0.4704820225755997  0.8111566393154116  0.6762866171872195
  0.9414522245781985  0.3189675617644955  0.6718067582762977
  0.9927888142781603  0.7565358669055714  0.6832766274859184
  0.3079682492952253  0.0286231720988780  0.6769047722201010
  0.3139707240851989  0.5168139267830264  0.6771686941344272
  0.7887086276244121  0.0503932765413889  0.6786364974268881
  0.8447986095242103  0.5023194448249099  0.6604925439579379
  0.0773248497356943  0.1749180737555809  0.6594858891496571
  0.0665984636105859  0.7067028864322042  0.6429045191604899
  0.5968587670281950  0.1988023783245356  0.6617311740370522
  0.5718208490691165  0.6711376747114727  0.6457540538295667
  0.1733265118343610  0.4222385389434654  0.6461073606392297
  0.1663601185602030  0.9258782594769613  0.6475471629744658
  0.6482169839843123  0.4504777175734835  0.6577734230184028
  0.6760561730759718  0.9241083298153021  0.6464061652698301
  0.0405520894484699  0.2230073623534030  0.6810094836055949
  0.0818169008629860  0.6791836215536174  0.6693754596457330
  0.5071736695632300  0.1623737307040049  0.6610962114742684
  0.5634830691600049  0.7042202936598116  0.6719303266377241
  0.2353859256144067  0.4083126446990075  0.6671212833463359
  0.2007742991289708  0.9359013656495824  0.6734388130033877
  0.7353523710073547  0.4083724095654845  0.6600039986193382
  0.6913270900437738  0.9479633744830412  0.6730963444786130
  0.4388377305178677  0.3533086192508107  0.6556346209131790
  0.4223239977179492  0.8344535735785997  0.6531058500588952
  0.9243487986345587  0.3293868264386207  0.6444179065107731
  0.9250428888551381  0.8356142808991710  0.6621261814467863
  0.3303699092245075  0.0756729386128205  0.6534304633688053
  0.2970106539349756  0.5993036416774069  0.6629452365902241
  0.8315780814178195  0.0812078149210360  0.6553545334799435
  0.8168971495224020  0.5948281262072838  0.6583680797976046
  0.0079173974529985  0.2392863574324545  0.6343294114295929
  0.9680152505701028  0.8081233006943571  0.6383876708370654
  0.5602533427719403  0.3193757885258868  0.6584781656539070
  0.4820921054447430  0.7482965381161606  0.6321108888624046
  0.2434876671537979  0.0144715881482058  0.6329950843685506
  0.2070797836639183  0.5453692290049816  0.6415111592361140
  0.7638943059814534  0.0047735979222749  0.6331703183267818
  0.6936517616095157  0.5685421951554985  0.6564131409362173
  0.4594810219824021  0.2711451466762255  0.7795740432509920
  0.4527834480649371  0.7852804213116350  0.7775817189018305
  0.9580897815307906  0.2598305982669422  0.7819082414260629
  0.9466696077384783  0.7932609079831435  0.7744430600074197
  0.2978695983307291  0.0506727068698510  0.7764191899265194
  0.2978659514737765  0.5523462292306860  0.7753760068876591
  0.7902470877655270  0.0754356373384113  0.7727291765872655
  0.7970898413018918  0.5559019735762214  0.7734280997276880
  0.0838086346929384  0.1782801532749774  0.7433310528473577
  0.0829676851131703  0.6756792135765419  0.7479783239252318
  0.5853343522405043  0.1731488341806664  0.7442443908273971
  0.5785862170210674  0.6744630804681048  0.7454867537129053
  0.1692246273006344  0.4252805907917034  0.7494025615060876
  0.1727862904898003  0.9253969483769512  0.7482285991857447
  0.6695675778267466  0.4252172306312529  0.7483260877064906
  0.6835326980234988  0.9161838282021292  0.7551091603212567
  0.0602186393724865  0.1736801345524790  0.7703612386521485
  0.0485124193477553  0.6954163938889907  0.7734519688471333
  0.5606696629298101  0.1789285698867817  0.7711364813719284
  0.5509969762831692  0.6872618850209006  0.7720065043771887
  0.1978550333635254  0.4527929801418046  0.7747916084656751
  0.1973121744117053  0.9512780183654401  0.7741593934087909
  0.6964249922818105  0.4570359325312355  0.7735747294832545
  0.6919602792045264  0.9780258316646572  0.7764173125455176
  0.4313205927190893  0.3278920964045337  0.7585821062008667
  0.4261590835518138  0.8345539387693958  0.7549346332343706
  0.9334008994048469  0.3287185109320570  0.7636834143113889
  0.9233852324591209  0.8314300802731818  0.7498030588738139
  0.3309273355656929  0.0823488590407762  0.7519132615361518
  0.3277018816337428  0.5826272793681768  0.7503691476975927
  0.8346657834871666  0.0793183385782922  0.7480088336415976
  0.8286902330219644  0.5817550479759274  0.7480998580811412
  0.0081287531542844  0.2796855663189287  0.7366289898405968
  0.0071669041566123  0.7594633214453901  0.7309274617298180
  0.5066840443239472  0.2676784401567739  0.7336973845131936
  0.5027847836675378  0.7667330180716835  0.7322740997446792
  0.2549205788853042  0.0054941494372046  0.7320504063456663
  0.2488647747671705  0.5047602647919555  0.7317427135088773
  0.7711746849842636  0.9779657089358087  0.7343604671562647
  0.7510038781707501  0.5012894047720553  0.7302003826858393
  0.7042772464170304  0.4267424134247554  0.5267419737184376
  0.7350645505428415  0.4668339734469593  0.5025109656515024
  0.6526867052112890  0.5371275615750725  0.5369657727788760
  0.7061241958340148  0.6189522187583381  0.5399141099134258
  0.8424396882919521  0.4893619100131698  0.5538046449955982
  0.7910838059140900  0.5688503203833041  0.5605998193100753
  0.8785077223848433  0.5280473061607091  0.5209871302425794
  0.8150550130504943  0.5647766351798829  0.5018111264751254
  0.8660121789986510  0.4238798915032006  0.5108002018300392
  0.8331277335305622  0.3837277955275856  0.5347602455984691
  0.8449088743526476  0.2867886320286375  0.5098086229369485
  0.7498830124829585  0.3005929768670680  0.5131999215803580
  0.6604640136597044  0.5509830416401460  0.4963092249910361
  0.7088961713513033  0.6363657612523614  0.5001269796771248
  0.6176072415771875  0.6250929962804409  0.5098273411641089
  0.7504263235609129  0.4671551377404483  0.5829887823500299
  0.7311258597791567  0.4085028419855149  0.5610862946032680
  0.6756331792200999  0.4886355666796917  0.5660088650322613
  0.8033318611454658  0.6803980065703398  0.5258415276743015
  0.8948531961691438  0.6616922761908632  0.5171616416577350
  0.8685780182136933  0.6394366611020087  0.5436013866685504
  0.8407707712070036  0.3586474391457767  0.4749686883144480
  0.7910345392122712  0.2749143838636838  0.4753762668898715
  0.6472082020183408  0.3009795150940197  0.4918504258833730
  0.7818978642443901  0.4511937320306236  0.4551227254967102
  0.5348451946158264  0.3699650394193189  0.4811909287799634
  0.6690664572408159  0.5197176442105182  0.4439634255596239
  0.5449639148381289  0.4797327290972720  0.4571565299947822
  0.0067478228241558  0.2688723970006236  0.5599993896877001
  0.0277080435760434  0.7840104482391125  0.5594972771642232
  0.4724177435773680  0.2300029228808693  0.5617575402011176
  0.5142828263162198  0.7834660624417507  0.5624020320966026
  0.2512015979102780  0.5070555660057411  0.5710624299028136
  0.2701474499908217  0.9821867097491473  0.5640430421320995
  0.7722497212172150  0.9845936563190649  0.5614933396010949
  0.0013043419047870  0.2520596336389441  0.6512846985897964
  0.0028789000732920  0.7570225390925664  0.6660617437521842
  0.5179725959248115  0.2762342590056140  0.6588091487635265
  0.4962440780371915  0.7521969808348460  0.6490632539582122
  0.2345010040959738  0.5121838334150197  0.6538485823964065
  0.2481485023106326  0.0013059722418244  0.6499928472353155
  0.7325840145865107  0.5226213794202306  0.6578896348601456
  0.7543279544864785  0.0024980104422010  0.6504048046808898
  0.5074432299700662  0.2505747859713248  0.7504394903417223
  0.5019666685627524  0.7544566962357341  0.7493725909843384
  0.0078824929509004  0.2543437363176297  0.7524947879455469
  0.0029839683237794  0.7532494283843504  0.7482432284917169
  0.2519738512777296  0.0038220536612790  0.7494832881339283
  0.2484197489780478  0.5040231316232840  0.7492042332298970
  0.7584803424158012 -0.0021937466654722  0.7504599969588066
  0.7491484428955344  0.5034588527064831  0.7476544182057115
  0.7228316145687229  0.3716341508367167  0.4743704214342208
  0.6523683915314371  0.3490321908106698  0.4813669501694490
  0.7275726571613026  0.4331944224885556  0.4607749436307095
  0.5889250919137800  0.3878071669810717  0.4753435464192012
  0.6641052537725211  0.4718117383230319  0.4545044450652292
  0.5945476770694728  0.4494899064750265  0.4618893862132297
  0.7521602797698812  0.4519699987463595  0.5187530967124296
  0.6958266073404903  0.5711692153444941  0.5294568303891254
  0.7865496740768086  0.5132670792844304  0.5536790888785886
  0.8301635844465802  0.5639757092073825  0.5188485366539750
  0.8173208743928446  0.3982695410263387  0.5182898167818665
  0.7998455829897971  0.3259971946787235  0.5063095115223833
  0.6706858128860897  0.5965810044679052  0.5075030473397975
  0.7321885557577801  0.4666138764833975  0.5662439086908502
  0.8490089074263921  0.6406384761795205  0.5269982702526009
  0.7915711500545765  0.3316829301050021  0.4818660639072346
  0.0656268380217414  0.2270518894703563  0.5623828033562335
  0.0467557431952240  0.7149211847282273  0.5630383699362134
  0.5399883063803070  0.2038172850568917  0.5633184470824747
  0.5320023894280670  0.7136636515799237  0.5651991487909268
  0.4532898224842447  0.3000745922905469  0.5619718544644092
  0.4469803670506470  0.8109491400199549  0.5627072055709278
  0.9411182003179770  0.2536135549038841  0.5678937303193016
  0.9609730412972088  0.8115852813899159  0.5620779533773276
  0.1951867441838152  0.4644020363340789  0.5659255904594582
  0.2003047996512207  0.9693445133024020  0.5685091733025267
  0.7029573283332983  0.9753302966048373  0.5672705411555624
  0.3015461659351615  0.0476096292097589  0.5629176178318265
  0.2770317593772817  0.5630665308094260  0.5598611659869426
  0.8072676009899276  0.0481564493999024  0.5605103003477506
  0.0424778468860809  0.2149022306916422  0.6648818046012934
  0.0535116863866918  0.7115669204160616  0.6587228423961351
  0.5410918939305636  0.2077221059028274  0.6607679411023334
  0.5466934728867507  0.7062026820575420  0.6563174366481332
  0.2123870567135981  0.4434238576792565  0.6562033548027615
  0.2031041009605040  0.9507821062342832  0.6576568383028562
  0.7046168886302463  0.4556023298926293  0.6584526876810006
  0.7049050866665457  0.9549191764655659  0.6573325487008910
  0.4488925223374748  0.2980268795188717  0.6573259693909779
  0.4607093098074609  0.8018740557013213  0.6604342495426749
  0.9528465378191002  0.3030999475444277  0.6564038427792387
  0.9625258170110470  0.8025126549583488  0.6545441898686969
  0.2976996445888030  0.0381204026553825  0.6610857179698476
  0.2869679361719172  0.5440219304036868  0.6650917392853798
  0.7937091193459092  0.0473961944314697  0.6624100278206891
  0.8030451552732706  0.5399727591471922  0.6588075471734514
  0.0526736711362943  0.1981541800244277  0.7557126655095563
  0.0471258621607702  0.7048637887798092  0.7573343852369073
  0.5533085513956535  0.1972123547611327  0.7557640285538502
  0.5460730196080779  0.7018096717810588  0.7562473879416973
  0.2024693338931327  0.4579163707949194  0.7585625702570549
  0.2045563349080007  0.9573585422117947  0.7580427932534214
  0.7023668085173125  0.4590054335207389  0.7573352902782289
  0.7070725699571588  0.9626438591479538  0.7612887320558428
  0.4633729194393044  0.2853267199712569  0.7637743831994346
  0.4574169681592705  0.7936753200729605  0.7614798581252823
  0.9638016337191253  0.2827695232132969  0.7670135202505887
  0.9546561016051653  0.7949948565905222  0.7582678465021184
  0.2961900860605293  0.0482848127515090  0.7601077917848553
  0.2940076185192953  0.5490972811812419  0.7591053987551153
  0.7964509704056522  0.0546224614049114  0.7576359929673188
  0.7940678663519378  0.5501044817062177  0.7571975747213938
  0.7664386346854593  0.5250353274544581  0.5301474114562075
  0.4935267463479905  0.0054393548207794  0.5556596465729443
  0.4994748392436177  0.4981912622926046  0.5529968031195241
 -0.0010440868221197  0.0051492342590814  0.5541230403490733
  0.0071446958911118  0.4837880122666576  0.5511654785098149
  0.2613004283367032  0.2495416635320896  0.5550110978002734
  0.2426257975783544  0.7683782229682172  0.5543750157316591
  0.7412003831475682  0.2370461634955956  0.5566279783255251
  0.7211855906182069  0.7804006477295994  0.5545980711079641
  0.0046114773728213  0.0103639399715554  0.6558474919653200
  0.0023703140833739  0.5127924799351110  0.6538478826783518
  0.5012994794944743  0.0113164214999047  0.6578618975675983
  0.5070494897021005  0.4954159048844172  0.6555957179962490
  0.2500143899191363  0.2427667308216643  0.6569196487488587
  0.2579189484453891  0.7398008154645761  0.6559228748659410
  0.7371362218058642  0.2534563261610965  0.6577186164145132
  0.7627883033039614  0.7355024743021997  0.6548604411611515
  0.1355969728720070  0.1139359566214226  0.6051934155793320
  0.1344151462111213  0.6159156962175569  0.6063693513739431
  0.6426766751764618  0.1050104079285047  0.6074810652903793
  0.6370592538214829  0.6120200811360031  0.6074974798542052
  0.3568291662194048  0.3946674058651622  0.6104536327647301
  0.3572707383752524  0.8924097728067802  0.6111012820184643
  0.8611730364745028  0.3873447843890019  0.6102528389663474
  0.8572859808353571  0.8913066274243419  0.6074489912088017
  0.1084833559649179  0.3635738942564450  0.6090818340424076
  0.1039545775986440  0.8581387271104394  0.6106270327631568
  0.5960180646644448  0.3498211493355917  0.6046502948191619
  0.6074622335303870  0.8632889653075401  0.6114884146368073
  0.3896883573570037  0.1446410414111367  0.6119640346555920
  0.3900714780216022  0.6438378268805445  0.6014660375185895
  0.8832036320521738  0.1382849502663555  0.6111705565443741
  0.8910654050165994  0.6476651622562394  0.5956128601807487
 -0.0050839629447419  0.9963839658215125  0.7560275400560396
  0.9942563582144870  0.4849268221573172  0.7549381186386520
  0.4971901780289885  0.9935158827211655  0.7578330270569181
  0.4928656603009508  0.4914873935731125  0.7562711273542592
  0.2573830776789808  0.2550965954450868  0.7571476306180779
  0.2540071452592544  0.7528043799338181  0.7563298234025823
  0.7591173344296555  0.2554601364231376  0.7580361934771478
  0.7461397875541426  0.7629364985727561  0.7550894484065674
  0.1454757550266642  0.1129578740733333  0.7074724472446480
  0.1356870255580881  0.6225099298669063  0.7071795045124922
  0.6540983292369639  0.1060956767196912  0.7084549127713468
  0.6352249203264786  0.6197055843063304  0.7064264856551321
  0.3535681624324434  0.4022028574466575  0.7037253553282138
  0.3634472196868832  0.8979287323978978  0.7055664796015025
  0.8615392861210445  0.3955088041518126  0.7015286583260055
  0.8658278774345223  0.8908791813791843  0.7023139245305074
  0.1115869754289341  0.3617821891884654  0.7063382880066416
  0.1195718269944675  0.8705984582061396  0.7069825167625656
  0.6136536285004809  0.3652953623608667  0.7089751389188271
  0.6111041869076428  0.8614162532195074  0.7031790451746083
  0.3946874075726103  0.1443524381194854  0.7079338158331044
  0.3943996435293116  0.6453707493539226  0.7077129531006306
  0.8959363101721117  0.1481431334931623  0.7074823552385772
  0.8894243117502924  0.6400783817351414  0.7096648308367441
  0.1453929295027765  0.1049836194338056  0.8014479880543863
  0.1470319661584281  0.6041183083535782  0.8012619442708978
  0.6473875565045267  0.1036547194267829  0.8018854498837722
  0.6473999270293019  0.6031969220673199  0.8005138823325419
  0.3469488055005867  0.4054556170703901  0.8044752144770780
  0.3460298006096145  0.9051958424558968  0.8043265149595804
  0.8439872035269731  0.4095315943286307  0.8043720039700366
  0.8527048973039282  0.8976862321450609  0.8040922561633244
  0.1052802188788163  0.3566222198912019  0.8048807981125531
  0.1024457693762845  0.8529197841110079  0.8020065230377590
  0.6016769422194292  0.3543873304859206  0.8040991828115189
  0.6008101808891995  0.8518537513191363  0.8045720956225608
  0.4023102345807620  0.1507538186538910  0.8045429441382390
  0.4026865694233277  0.6533354147005530  0.8029148263646794
  0.8960173824919149  0.1464798075876548  0.8054039733840926
  0.9013826382787707  0.6525603909904186  0.8005344847553992
  0.9941651665085528  0.0018617264559932  0.6055025180964431
  0.9936945769766971  0.5015880024254478  0.6023545252886757
  0.4958594127282731  0.0044646614113894  0.6074141217604214
  0.5012591590689363  0.4978856384738545  0.6023970702169521
  0.2534034345804498  0.2554653836245473  0.6058888799186470
  0.2472907698203537  0.7530928470860593  0.6053769010019616
  0.7409335181733949  0.2526424629722777  0.6063496615768811
  0.7445072544070156  0.7532101270014963  0.6040656341222518
  0.0031098332682028  0.0074938928400939  0.7057112516386123
  0.0041862156929657  0.5048061389720043  0.7043283781572668
  0.5080174859119428  0.0076146213541169  0.7079534826405577
  0.5014016289505839  0.5039401103905700  0.7059542404643622
  0.2546575919575559  0.2548882226357134  0.7071194920100137
  0.2574233507039843  0.7570072667241711  0.7062531603087855
  0.7533238510562187  0.2569206610359109  0.7078645384161111
  0.7542825218704607  0.7528898616157267  0.7046657518085551
  0.0012143730526294  0.0071142384832681  0.8043020898142118
  0.0018974097887778  0.5105565704200576  0.8028629320803752
  0.5029134277525681  0.0077386482086056  0.8059726111560538
  0.5011434299415053  0.5098963456479717  0.8042362770874335
  0.2489725524365526  0.2624603492203497  0.8053029104648521
  0.2492411378748969  0.7621865124197804  0.8045065878045796
  0.7487924627708281  0.2675630548055203  0.8061602356238178
  0.7481314476671640  0.7605494272560616  0.8035163041996322
 
  0.00000000E+00  0.00000000E+00  0.00000000E+00
  0.00000000E+00  0.00000000E+00  0.00000000E+00
  0.00000000E+00  0.00000000E+00  0.00000000E+00
  0.00000000E+00  0.00000000E+00  0.00000000E+00
  0.00000000E+00  0.00000000E+00  0.00000000E+00
  0.00000000E+00  0.00000000E+00  0.00000000E+00
  0.00000000E+00  0.00000000E+00  0.00000000E+00
  0.00000000E+00  0.00000000E+00  0.00000000E+00
  0.00000000E+00  0.00000000E+00  0.00000000E+00
  0.00000000E+00  0.00000000E+00  0.00000000E+00
  0.00000000E+00  0.00000000E+00  0.00000000E+00
  0.00000000E+00  0.00000000E+00  0.00000000E+00
  0.00000000E+00  0.00000000E+00  0.00000000E+00
  0.00000000E+00  0.00000000E+00  0.00000000E+00
  0.00000000E+00  0.00000000E+00  0.00000000E+00
  0.00000000E+00  0.00000000E+00  0.00000000E+00
  0.00000000E+00  0.00000000E+00  0.00000000E+00
  0.00000000E+00  0.00000000E+00  0.00000000E+00
  0.00000000E+00  0.00000000E+00  0.00000000E+00
  0.00000000E+00  0.00000000E+00  0.00000000E+00
  0.00000000E+00  0.00000000E+00  0.00000000E+00
  0.00000000E+00  0.00000000E+00  0.00000000E+00
  0.00000000E+00  0.00000000E+00  0.00000000E+00
  0.00000000E+00  0.00000000E+00  0.00000000E+00
  0.00000000E+00  0.00000000E+00  0.00000000E+00
  0.00000000E+00  0.00000000E+00  0.00000000E+00
  0.00000000E+00  0.00000000E+00  0.00000000E+00
  0.00000000E+00  0.00000000E+00  0.00000000E+00
  0.00000000E+00  0.00000000E+00  0.00000000E+00
  0.00000000E+00  0.00000000E+00  0.00000000E+00
  0.00000000E+00  0.00000000E+00  0.00000000E+00
  0.00000000E+00  0.00000000E+00  0.00000000E+00
  0.00000000E+00  0.00000000E+00  0.00000000E+00
  0.00000000E+00  0.00000000E+00  0.00000000E+00
  0.00000000E+00  0.00000000E+00  0.00000000E+00
  0.00000000E+00  0.00000000E+00  0.00000000E+00
  0.00000000E+00  0.00000000E+00  0.00000000E+00
  0.00000000E+00  0.00000000E+00  0.00000000E+00
  0.00000000E+00  0.00000000E+00  0.00000000E+00
  0.00000000E+00  0.00000000E+00  0.00000000E+00
  0.00000000E+00  0.00000000E+00  0.00000000E+00
  0.00000000E+00  0.00000000E+00  0.00000000E+00
  0.00000000E+00  0.00000000E+00  0.00000000E+00
  0.00000000E+00  0.00000000E+00  0.00000000E+00
  0.00000000E+00  0.00000000E+00  0.00000000E+00
  0.00000000E+00  0.00000000E+00  0.00000000E+00
  0.00000000E+00  0.00000000E+00  0.00000000E+00
  0.00000000E+00  0.00000000E+00  0.00000000E+00
  0.00000000E+00  0.00000000E+00  0.00000000E+00
  0.00000000E+00  0.00000000E+00  0.00000000E+00
  0.00000000E+00  0.00000000E+00  0.00000000E+00
  0.00000000E+00  0.00000000E+00  0.00000000E+00
  0.00000000E+00  0.00000000E+00  0.00000000E+00
  0.00000000E+00  0.00000000E+00  0.00000000E+00
  0.00000000E+00  0.00000000E+00  0.00000000E+00
  0.00000000E+00  0.00000000E+00  0.00000000E+00
  0.00000000E+00  0.00000000E+00  0.00000000E+00
  0.00000000E+00  0.00000000E+00  0.00000000E+00
  0.00000000E+00  0.00000000E+00  0.00000000E+00
  0.00000000E+00  0.00000000E+00  0.00000000E+00
  0.00000000E+00  0.00000000E+00  0.00000000E+00
  0.00000000E+00  0.00000000E+00  0.00000000E+00
  0.00000000E+00  0.00000000E+00  0.00000000E+00
  0.00000000E+00  0.00000000E+00  0.00000000E+00
  0.00000000E+00  0.00000000E+00  0.00000000E+00
  0.00000000E+00  0.00000000E+00  0.00000000E+00
  0.00000000E+00  0.00000000E+00  0.00000000E+00
  0.00000000E+00  0.00000000E+00  0.00000000E+00
  0.00000000E+00  0.00000000E+00  0.00000000E+00
  0.00000000E+00  0.00000000E+00  0.00000000E+00
  0.00000000E+00  0.00000000E+00  0.00000000E+00
  0.00000000E+00  0.00000000E+00  0.00000000E+00
  0.00000000E+00  0.00000000E+00  0.00000000E+00
  0.00000000E+00  0.00000000E+00  0.00000000E+00
  0.00000000E+00  0.00000000E+00  0.00000000E+00
  0.00000000E+00  0.00000000E+00  0.00000000E+00
  0.00000000E+00  0.00000000E+00  0.00000000E+00
  0.00000000E+00  0.00000000E+00  0.00000000E+00
  0.00000000E+00  0.00000000E+00  0.00000000E+00
  0.00000000E+00  0.00000000E+00  0.00000000E+00
  0.00000000E+00  0.00000000E+00  0.00000000E+00
  0.00000000E+00  0.00000000E+00  0.00000000E+00
  0.00000000E+00  0.00000000E+00  0.00000000E+00
  0.00000000E+00  0.00000000E+00  0.00000000E+00
  0.00000000E+00  0.00000000E+00  0.00000000E+00
  0.00000000E+00  0.00000000E+00  0.00000000E+00
  0.00000000E+00  0.00000000E+00  0.00000000E+00
  0.00000000E+00  0.00000000E+00  0.00000000E+00
  0.00000000E+00  0.00000000E+00  0.00000000E+00
  0.00000000E+00  0.00000000E+00  0.00000000E+00
  0.00000000E+00  0.00000000E+00  0.00000000E+00
  0.00000000E+00  0.00000000E+00  0.00000000E+00
  0.00000000E+00  0.00000000E+00  0.00000000E+00
  0.00000000E+00  0.00000000E+00  0.00000000E+00
  0.00000000E+00  0.00000000E+00  0.00000000E+00
  0.00000000E+00  0.00000000E+00  0.00000000E+00
  0.00000000E+00  0.00000000E+00  0.00000000E+00
  0.00000000E+00  0.00000000E+00  0.00000000E+00
  0.00000000E+00  0.00000000E+00  0.00000000E+00
  0.00000000E+00  0.00000000E+00  0.00000000E+00
  0.00000000E+00  0.00000000E+00  0.00000000E+00
  0.00000000E+00  0.00000000E+00  0.00000000E+00
  0.00000000E+00  0.00000000E+00  0.00000000E+00
  0.00000000E+00  0.00000000E+00  0.00000000E+00
  0.00000000E+00  0.00000000E+00  0.00000000E+00
  0.00000000E+00  0.00000000E+00  0.00000000E+00
  0.00000000E+00  0.00000000E+00  0.00000000E+00
  0.00000000E+00  0.00000000E+00  0.00000000E+00
  0.00000000E+00  0.00000000E+00  0.00000000E+00
  0.00000000E+00  0.00000000E+00  0.00000000E+00
  0.00000000E+00  0.00000000E+00  0.00000000E+00
  0.00000000E+00  0.00000000E+00  0.00000000E+00
  0.00000000E+00  0.00000000E+00  0.00000000E+00
  0.00000000E+00  0.00000000E+00  0.00000000E+00
  0.00000000E+00  0.00000000E+00  0.00000000E+00
  0.00000000E+00  0.00000000E+00  0.00000000E+00
  0.00000000E+00  0.00000000E+00  0.00000000E+00
  0.00000000E+00  0.00000000E+00  0.00000000E+00
  0.00000000E+00  0.00000000E+00  0.00000000E+00
  0.00000000E+00  0.00000000E+00  0.00000000E+00
  0.00000000E+00  0.00000000E+00  0.00000000E+00
  0.00000000E+00  0.00000000E+00  0.00000000E+00
  0.00000000E+00  0.00000000E+00  0.00000000E+00
  0.00000000E+00  0.00000000E+00  0.00000000E+00
  0.00000000E+00  0.00000000E+00  0.00000000E+00
  0.00000000E+00  0.00000000E+00  0.00000000E+00
  0.00000000E+00  0.00000000E+00  0.00000000E+00
  0.00000000E+00  0.00000000E+00  0.00000000E+00
  0.00000000E+00  0.00000000E+00  0.00000000E+00
  0.00000000E+00  0.00000000E+00  0.00000000E+00
  0.00000000E+00  0.00000000E+00  0.00000000E+00
  0.00000000E+00  0.00000000E+00  0.00000000E+00
  0.00000000E+00  0.00000000E+00  0.00000000E+00
  0.00000000E+00  0.00000000E+00  0.00000000E+00
  0.00000000E+00  0.00000000E+00  0.00000000E+00
  0.00000000E+00  0.00000000E+00  0.00000000E+00
  0.00000000E+00  0.00000000E+00  0.00000000E+00
  0.00000000E+00  0.00000000E+00  0.00000000E+00
  0.00000000E+00  0.00000000E+00  0.00000000E+00
  0.00000000E+00  0.00000000E+00  0.00000000E+00
  0.00000000E+00  0.00000000E+00  0.00000000E+00
  0.00000000E+00  0.00000000E+00  0.00000000E+00
  0.00000000E+00  0.00000000E+00  0.00000000E+00
  0.00000000E+00  0.00000000E+00  0.00000000E+00
  0.00000000E+00  0.00000000E+00  0.00000000E+00
  0.00000000E+00  0.00000000E+00  0.00000000E+00
  0.00000000E+00  0.00000000E+00  0.00000000E+00
  0.00000000E+00  0.00000000E+00  0.00000000E+00
  0.00000000E+00  0.00000000E+00  0.00000000E+00
  0.00000000E+00  0.00000000E+00  0.00000000E+00
  0.00000000E+00  0.00000000E+00  0.00000000E+00
  0.00000000E+00  0.00000000E+00  0.00000000E+00
  0.00000000E+00  0.00000000E+00  0.00000000E+00
  0.00000000E+00  0.00000000E+00  0.00000000E+00
  0.00000000E+00  0.00000000E+00  0.00000000E+00
  0.00000000E+00  0.00000000E+00  0.00000000E+00
  0.00000000E+00  0.00000000E+00  0.00000000E+00
  0.00000000E+00  0.00000000E+00  0.00000000E+00
  0.00000000E+00  0.00000000E+00  0.00000000E+00
  0.00000000E+00  0.00000000E+00  0.00000000E+00
  0.00000000E+00  0.00000000E+00  0.00000000E+00
  0.00000000E+00  0.00000000E+00  0.00000000E+00
  0.00000000E+00  0.00000000E+00  0.00000000E+00
  0.00000000E+00  0.00000000E+00  0.00000000E+00
  0.00000000E+00  0.00000000E+00  0.00000000E+00
  0.00000000E+00  0.00000000E+00  0.00000000E+00
  0.00000000E+00  0.00000000E+00  0.00000000E+00
  0.00000000E+00  0.00000000E+00  0.00000000E+00
  0.00000000E+00  0.00000000E+00  0.00000000E+00
  0.00000000E+00  0.00000000E+00  0.00000000E+00
  0.00000000E+00  0.00000000E+00  0.00000000E+00
  0.00000000E+00  0.00000000E+00  0.00000000E+00
  0.00000000E+00  0.00000000E+00  0.00000000E+00
  0.00000000E+00  0.00000000E+00  0.00000000E+00
  0.00000000E+00  0.00000000E+00  0.00000000E+00
  0.00000000E+00  0.00000000E+00  0.00000000E+00
  0.00000000E+00  0.00000000E+00  0.00000000E+00
  0.00000000E+00  0.00000000E+00  0.00000000E+00
  0.00000000E+00  0.00000000E+00  0.00000000E+00
  0.00000000E+00  0.00000000E+00  0.00000000E+00
  0.00000000E+00  0.00000000E+00  0.00000000E+00
  0.00000000E+00  0.00000000E+00  0.00000000E+00
  0.00000000E+00  0.00000000E+00  0.00000000E+00
  0.00000000E+00  0.00000000E+00  0.00000000E+00
  0.00000000E+00  0.00000000E+00  0.00000000E+00
  0.00000000E+00  0.00000000E+00  0.00000000E+00
  0.00000000E+00  0.00000000E+00  0.00000000E+00
  0.00000000E+00  0.00000000E+00  0.00000000E+00
  0.00000000E+00  0.00000000E+00  0.00000000E+00
  0.00000000E+00  0.00000000E+00  0.00000000E+00
  0.00000000E+00  0.00000000E+00  0.00000000E+00
  0.00000000E+00  0.00000000E+00  0.00000000E+00
  0.00000000E+00  0.00000000E+00  0.00000000E+00
  0.00000000E+00  0.00000000E+00  0.00000000E+00
  0.00000000E+00  0.00000000E+00  0.00000000E+00
  0.00000000E+00  0.00000000E+00  0.00000000E+00
  0.00000000E+00  0.00000000E+00  0.00000000E+00
  0.00000000E+00  0.00000000E+00  0.00000000E+00
  0.00000000E+00  0.00000000E+00  0.00000000E+00
  0.00000000E+00  0.00000000E+00  0.00000000E+00