PerovskiteSurface_12951678_2
1.0
       18.0608005524         0.0000000000         0.0000000000
       -0.0049186487        18.0627987840         0.0000000000
        0.0000000000         0.0000000000        62.4874992371
     H     C     N     I     Pb
     143     39     47     72     24
Selective Dynamics
Cartesian
          8.123312019          5.415272448          36.359539078   T   T   T
          8.120852694          14.446672378          36.359539078   T   T   T
          17.153711757          5.415272448          36.359539078   T   T   T
          17.151252432          14.446672378          36.359539078   T   T   T
          5.440076621          0.92571843          36.359539078   T   T   T
          5.437617297          9.957117485          36.359539078   T   T   T
          14.470477436          0.92571843          36.359539078   T   T   T
          1.43750212          3.092170409          34.802600971   T   T   T
          1.435042796          12.123570339          34.802600971   T   T   T
          10.467902665          3.092170409          34.802600971   T   T   T
          10.465443341          12.123570339          34.802600971   T   T   T
          5.93922215          1.425172893          34.802600971   T   T   T
          5.936762826          10.45657215          34.802600971   T   T   T
          14.969622426          1.425172893          34.802600971   T   T   T
          0.90468316          3.616136095          36.359412444   T   T   T
          0.902223835          12.647535487          36.359412444   T   T   T
          9.935083571          3.616136095          36.359412444   T   T   T
          9.932624246          12.647535487          36.359412444   T   T   T
          3.587846578          8.105644155          36.359412444   T   T   T
          3.585387253          17.137045162          36.359412444   T   T   T
          12.615787529          17.137045162          36.359412444   T   T   T
          7.590258216          5.939346336          34.802537654   T   T   T
          7.587798891          14.970746266          34.802537654   T   T   T
          16.62065903          5.939346336          34.802537654   T   T   T
          16.618200782          14.970746266          34.802537654   T   T   T
          3.088718802          7.606226634          34.802537654   T   T   T
          3.086259477          16.637627103          34.802537654   T   T   T
          12.116659753          16.637627103          34.802537654   T   T   T
          9.029125386          4.515754066          33.649329073   T   T   T
          9.026665523          13.547152919          33.649329073   T   T   T
          18.059526739          4.515754066          33.649329073   T   T   T
          18.057066338          13.547152919          33.649329073   T   T   T
          4.512740545          9.031399392          33.649329073   T   T   T
          4.515200138          0.0          33.649329073   T   T   T
          13.545600414          0.0          33.649329073   T   T   T
          8.104079043          5.441300975          42.128133299   T   T   T
          8.101619719          14.472700906          42.128133299   T   T   T
          17.134479319          5.441300975          42.128133299   T   T   T
          17.132018918          14.472700906          42.128133299   T   T   T
          5.440076621          0.92571843          42.127008486   T   T   T
          5.437617297          9.957117485          42.127008486   T   T   T
          14.470477436          0.92571843          42.127008486   T   T   T
          14.468018112          9.957117485          42.127008486   T   T   T
          1.422810135          3.09048172          40.545324501   T   T   T
          1.420350811          12.121881112          40.545324501   T   T   T
          10.453209873          3.09048172          40.545324501   T   T   T
          10.450750549          12.121881112          40.545324501   T   T   T
          3.088718802          7.606226634          40.544076778   T   T   T
          3.086259477          16.637627103          40.544076778   T   T   T
          12.119119078          7.606226634          40.544076778   T   T   T
          12.116659753          16.637627103          40.544076778   T   T   T
          0.923852758          3.590098686          42.128196616   T   T   T
          0.921393434          12.621498347          42.128196616   T   T   T
          9.954252496          3.590098686          42.128196616   T   T   T
          9.951793172          12.621498347          42.128196616   T   T   T
          3.587846578          8.105644155          42.126948894   T   T   T
          3.585387253          17.137045162          42.126948894   T   T   T
          12.618246854          8.105644155          42.126948894   T   T   T
          12.615787529          17.137045162          42.126948894   T   T   T
          7.605166887          5.940890757          40.545324501   T   T   T
          7.602707563          14.972290149          40.545324501   T   T   T
          16.635567163          5.940890757          40.545324501   T   T   T
          16.633107839          14.972290149          40.545324501   T   T   T
          5.93922215          1.425172893          40.544140096   T   T   T
          5.936762826          10.45657215          40.544140096   T   T   T
          14.969622426          1.425172893          40.544140096   T   T   T
          14.967163102          10.45657215          40.544140096   T   T   T
          -0.001229667          4.515717999          39.435048752   T   T   T
          -0.003688992          13.547117391          39.435048752   T   T   T
          9.029170609          4.515717999          39.435048752   T   T   T
          9.026711285          13.547117391          39.435048752   T   T   T
          4.515200131          2.7094e-05          39.433923939   T   T   T
          4.512740537          9.031426308          39.433923939   T   T   T
          13.545600407          2.7094e-05          39.433923939   T   T   T
          13.543141083          9.031426308          39.433923939   T   T   T
          8.103212256          5.442032005          48.045951423   F   F   F
          8.100752931          14.473430858          48.045951423   F   F   F
          17.133611455          5.442032005          48.045951423   F   F   F
          17.131153208          14.473430858          48.045951423   F   F   F
          5.441033418          0.926522199          48.04494952   F   F   F
          5.438574093          9.957921725          48.04494952   F   F   F
          14.471433156          0.926522199          48.04494952   F   F   F
          14.468973831          9.957921725          48.04494952   F   F   F
          1.42182539          3.091998956          46.455831343   F   F   F
          1.419366066          12.123398079          46.455831343   F   F   F
          10.452225532          3.091998956          46.455831343   F   F   F
          10.449766208          12.123398079          46.455831343   F   F   F
          3.089928425          7.607590182          46.454520303   F   F   F
          3.0874691          16.638990112          46.454520303   F   F   F
          12.120328701          7.607590182          46.454520303   F   F   F
          12.117869377          16.638990112          46.454520303   F   F   F
          0.924747002          3.589349085          48.045951423   F   F   F
          0.922287678          12.620747938          48.045951423   F   F   F
          9.955147278          3.589349085          48.045951423   F   F   F
          9.952687954          12.620747938          48.045951423   F   F   F
          3.586898391          8.104849605          48.044889927   F   F   F
          3.584439067          17.136249535          48.044889927   F   F   F
          12.617298667          8.104849605          48.044889927   F   F   F
          12.614839343          17.136249535          48.044889927   F   F   F
          7.606160919          5.9393641          46.455831343   F   F   F
          7.603701595          14.970763492          46.455831343   F   F   F
          16.636560119          5.9393641          46.455831343   F   F   F
          16.634101871          14.970763492          46.455831343   F   F   F
          5.938012529          1.423800059          46.454520303   F   F   F
          5.935553205          10.455199451          46.454520303   F   F   F
          14.968412806          1.423800059          46.454520303   F   F   F
          14.965953481          10.455199451          46.454520303   F   F   F
          -0.001166457          4.515726612          45.354799915   F   F   F
          -0.003625781          13.547126004          45.354799915   F   F   F
          9.029234121          4.515726612          45.354799915   F   F   F
          9.026774796          13.547126004          45.354799915   F   F   F
          4.515209288          0.0          45.353675102   F   F   F
          4.512749964          9.031399392          45.353675102   F   F   F
          13.545609026          0.0          45.353675102   F   F   F
          13.543149702          9.031399392          45.353675102   F   F   F
          12.093844413757324          10.222452163696289          34.94365310668945   T   T   T
          13.10387134552002          11.59227180480957          35.3654899597168   T   T   T
          15.339193344116211          9.268729209899902          36.533451080322266   T   T   T
          14.263411521911621          10.669089317321777          36.80668640136719   T   T   T
          16.073143005371094          9.61988639831543          34.08751678466797   T   T   T
          15.137727737426758          10.786571502685547          33.243385314941406   T   T   T
          12.86447811126709          8.171570777893066          34.60954284667969   T   T   T
          13.745412826538086          8.657332420349121          33.153236389160156   T   T   T
          13.637809753417969          11.930957794189453          32.91254425048828   T   T   T
          13.085026741027832          10.339153289794922          32.54777908325195   T   T   T
          10.749987602233887          11.267643928527832          33.45158767700195   T   T   T
          11.489114761352539          12.820954322814941          33.13462829589844   T   T   T
          13.397967338562012          7.723859310150146          36.59861755371094   T   T   T
          13.308476448059082          8.754642486572266          38.01165771484375   T   T   T
          12.26114559173584          9.068541526794434          36.630001068115234   T   T   T
          15.286903381347656          12.15805721282959          35.56351852416992   T   T   T
          16.652923583984375          11.03477668762207          35.835906982421875   T   T   T
          16.678539276123047          12.118715286254883          34.4645881652832   T   T   T
          15.127639770507812          7.326852798461914          35.541481018066406   T   T   T
          14.61515998840332          6.521702766418457          34.05726623535156   T   T   T
          15.861665725708008          7.725437641143799          33.98494338989258   T   T   T
          10.290483474731445          12.05798053741455          31.108381271362305   T   T   T
          12.028890609741211          12.140595436096191          30.80364227294922   T   T   T
          10.098917007446289          9.517735481262207          32.65776443481445   T   T   T
          12.380470275878906          10.463632583618164          29.14845848083496   T   T   T
          10.23475170135498          7.155871391296387          32.15565490722656   T   T   T
          12.483270645141602          8.052221298217773          28.57859992980957   T   T   T
          11.434575080871582          6.371548175811768          30.085485458374023   T   T   T
          -0.001003784          4.515265815          34.740114277   T   T   T
          -0.003463108          13.546665207          34.740114277   T   T   T
          9.029396799          4.515265815          34.740114277   T   T   T
          9.026937474          13.546665207          34.740114277   T   T   T
          4.512740545          9.031399392          34.740114277   T   T   T
          4.515200138          0.0          34.740114277   T   T   T
          13.545600414          0.0          34.740114277   T   T   T
          -0.001067071          4.515537395          40.524832053   T   T   T
          -0.003526395          13.546936517          40.524832053   T   T   T
          9.029333211          4.515537395          40.524832053   T   T   T
          9.026873887          13.546936517          40.524832053   T   T   T
          4.512731666          9.031390241          40.523580606   T   T   T
          4.510272611          18.062790171          40.523580606   T   T   T
          13.54313248          9.031390241          40.523580606   T   T   T
          13.540673156          18.062790171          40.523580606   T   T   T
          9.028971485          4.515609259          46.445521802   F   F   F
          9.026513237          13.547008651          46.445521802   F   F   F
          18.059371761          4.515609259          46.445521802   F   F   F
          18.056913513          13.547008651          46.445521802   F   F   F
          4.515209283          1.8063e-05          46.444207037   F   F   F
          4.512749959          9.031417695          46.444207037   F   F   F
          13.545609021          1.8063e-05          46.444207037   F   F   F
          13.543149697          9.031417695          46.444207037   F   F   F
          12.994863510131836          10.771533012390137          34.66104507446289   T   T   T
          14.338812828063965          9.67514705657959          36.36248779296875   T   T   T
          15.380369186401367          10.427021980285645          34.24018096923828   T   T   T
          13.83255672454834          8.506003379821777          34.228858947753906   T   T   T
          12.886502265930176          11.191322326660156          33.191436767578125   T   T   T
          11.521624565124512          11.763716697692871          32.858734130859375   T   T   T
          13.264839172363281          8.757161140441895          36.924903869628906   T   T   T
          16.01894760131836          11.504800796508789          35.08378982543945   T   T   T
          14.923501968383789          7.475564479827881          34.48129653930664   T   T   T
          11.253608703613281          11.608176231384277          31.363224029541016   T   T   T
          11.2394380569458          10.161001205444336          30.948898315429688   T   T   T
          10.620251655578613          9.20833683013916          31.76085090637207   T   T   T
          11.895527839660645          9.7328519821167          29.787822723388672   T   T   T
          10.693704605102539          7.851401329040527          31.46466064453125   T   T   T
          11.958247184753418          8.370271682739258          29.471656799316406   T   T   T
          11.366020202636719          7.426511287689209          30.31709098815918   T   T   T
          0.825826051          3.695820199          35.343367688   T   T   T
          0.823366727          12.72721986          35.343367688   T   T   T
          9.856225991          3.695820199          35.343367688   T   T   T
          9.853766666          12.72721986          35.343367688   T   T   T
          8.201952075          5.335841083          35.34368055   T   T   T
          8.199492212          14.367241013          35.34368055   T   T   T
          17.232352889          5.335841083          35.34368055   T   T   T
          17.229892488          14.367241013          35.34368055   T   T   T
          3.684716237          8.203039037          35.343367688   T   T   T
          3.682256912          17.234440044          35.343367688   T   T   T
          12.712657457          17.234440044          35.343367688   T   T   T
          5.343224982          0.828368968          35.34368055   T   T   T
          5.340765657          9.859768899          35.34368055   T   T   T
          14.37362472          0.828368968          35.34368055   T   T   T
          0.826469604          3.687159006          41.116461159   T   T   T
          0.82401028          12.718558398          41.116461159   T   T   T
          9.856869948          3.687159006          41.116461159   T   T   T
          9.854410623          12.718558398          41.116461159   T   T   T
          3.684716237          8.203039037          41.115336347   T   T   T
          3.682256912          17.234440044          41.115336347   T   T   T
          12.715116782          8.203039037          41.115336347   T   T   T
          12.712657457          17.234440044          41.115336347   T   T   T
          8.201236533          5.344493393          41.116587794   T   T   T
          8.198777208          14.375892785          41.116587794   T   T   T
          17.231635732          5.344493393          41.116587794   T   T   T
          17.229177484          14.375892785          41.116587794   T   T   T
          5.343224982          0.828368968          41.115336347   T   T   T
          5.340765657          9.859768899          41.115336347   T   T   T
          14.37362472          0.828368968          41.115336347   T   T   T
          14.371165395          9.859768899          41.115336347   T   T   T
          0.827309466          3.68696952          47.035966502   F   F   F
          0.824850142          12.718368912          47.035966502   F   F   F
          9.857709675          3.68696952          47.035966502   F   F   F
          9.855250351          12.718368912          47.035966502   F   F   F
          3.684318928          8.202335461          47.034651738   F   F   F
          3.681859604          17.233733777          47.034651738   F   F   F
          12.714718666          8.202335461          47.034651738   F   F   F
          12.712259342          17.233733777          47.034651738   F   F   F
          8.200676727          5.344574679          47.036026095   F   F   F
          8.198217402          14.375974609          47.036026095   F   F   F
          17.231077003          5.344574679          47.036026095   F   F   F
          17.228618755          14.375974609          47.036026095   F   F   F
          5.343648929          0.829091519          47.034651738   F   F   F
          5.341189605          9.860491315          47.034651738   F   F   F
          14.374048667          0.829091519          47.034651738   F   F   F
          14.371589343          9.860491315          47.034651738   F   F   F
          14.151546478271484          9.826242446899414          34.862060546875   T   T   T
          9.030400276          0.0          34.487102197   T   T   T
          9.027940952          9.031399392          34.487102197   T   T   T
          0.0          0.0          34.487102197   T   T   T
          -0.002459324          9.031399392          34.487102197   T   T   T
          4.513988777          4.515699696          34.48822701   T   T   T
          4.511529452          13.547099088          34.48822701   T   T   T
          13.544389053          4.515699696          34.48822701   T   T   T
          13.541929728          13.547099088          34.48822701   T   T   T
          0.0          0.0          40.860324186   T   T   T
          -0.002459324          9.031399392          40.860324186   T   T   T
          9.030400276          0.0          40.860324186   T   T   T
          9.027940952          9.031399392          40.860324186   T   T   T
          4.513970476          4.515699696          40.861139862   T   T   T
          4.511511152          13.547099088          40.861139862   T   T   T
          13.544370752          4.515699696          40.861139862   T   T   T
          13.541911428          13.547099088          40.861139862   T   T   T
          2.585040579          1.930181606          37.956031855   T   T   T
          2.582581255          10.961581132          37.956031855   T   T   T
          11.615441394          1.930181606          37.956031855   T   T   T
          11.612982069          10.961581132          37.956031855   T   T   T
          6.442891217          7.101235955          37.956031855   T   T   T
          6.440431893          16.132635347          37.956031855   T   T   T
          15.473291493          7.101235955          37.956031855   T   T   T
          15.470832169          16.132635347          37.956031855   T   T   T
          1.928853805          6.446613004          37.958218163   T   T   T
          1.92639448          15.478011858          37.958218163   T   T   T
          10.959253543          6.446613004          37.958218163   T   T   T
          10.956794218          15.478011858          37.958218163   T   T   T
          7.099087142          2.584804691          37.958218163   T   T   T
          7.096627818          11.616203544          37.958218163   T   T   T
          16.129487957          2.584804691          37.958218163   T   T   T
          16.127029709          11.616203544          37.958218163   T   T   T
          0.0          0.0          47.173562375   F   F   F
          -0.002459324          9.031399392          47.173562375   F   F   F
          9.030400276          0.0          47.173562375   F   F   F
          9.027940952          9.031399392          47.173562375   F   F   F
          4.513979626          4.515699696          47.174251416   F   F   F
          4.511520302          13.547099088          47.174251416   F   F   F
          13.544379364          4.515699696          47.174251416   F   F   F
          13.54192004          13.547099088          47.174251416   F   F   F
          2.451923326          2.062952287          44.040128575   F   F   F
          2.449464001          11.094351814          44.040128575   F   F   F
          11.482323063          2.062952287          44.040128575   F   F   F
          11.479863739          11.094351814          44.040128575   F   F   F
          6.576017626          6.96844697          44.040128575   F   F   F
          6.573558302          15.999846362          44.040128575   F   F   F
          15.606418441          6.96844697          44.040128575   F   F   F
          15.603959116          15.999846362          44.040128575   F   F   F
          2.061076856          6.578814689          44.04000194   F   F   F
          2.058617532          15.610214081          44.04000194   F   F   F
          11.091477267          6.578814689          44.04000194   F   F   F
          11.089017942          15.610214081          44.04000194   F   F   F
          6.966863959          2.452593855          44.040065257   F   F   F
          6.964404634          11.483993785          44.040065257   F   F   F
          15.997264235          2.452593855          44.040065257   F   F   F
          15.99480491          11.483993785          44.040065257   F   F   F
          2.431626446          2.083218843          50.068483751   F   F   F
          2.429167121          11.114618235          50.068483751   F   F   F
          11.462026453          2.083218843          50.068483751   F   F   F
          11.459567129          11.114618235          50.068483751   F   F   F
          6.596314237          6.948180549          50.068483751   F   F   F
          6.593854912          15.979579941          50.068483751   F   F   F
          15.626713975          6.948180549          50.068483751   F   F   F
          15.62425465          15.979579941          50.068483751   F   F   F
          2.081128174          6.599008976          50.069046157   F   F   F
          2.078668849          15.630408368          50.069046157   F   F   F
          11.111528181          6.599008976          50.069046157   F   F   F
          11.109068857          15.630408368          50.069046157   F   F   F
          6.946813047          2.432390685          50.069046157   F   F   F
          6.944353723          11.463789808          50.069046157   F   F   F
          15.977213323          2.432390685          50.069046157   F   F   F
          15.974753999          11.463789808          50.069046157   F   F   F
          9.025e-06          1.8063e-05          37.630409767   T   T   T
          -0.002450299          9.031417695          37.630409767   T   T   T
          9.030408883          1.8063e-05          37.630409767   T   T   T
          9.027949559          9.031417695          37.630409767   T   T   T
          4.513970478          4.515690276          37.630908856   T   T   T
          4.511511154          13.547090475          37.630908856   T   T   T
          13.544370755          4.515690276          37.630908856   T   T   T
          13.54191143          13.547090475          37.630908856   T   T   T
          9.028e-06          9.031e-06          44.043000199   F   F   F
          -0.002450296          9.031408005          44.043000199   F   F   F
          9.030408886          9.031e-06          44.043000199   F   F   F
          9.027949562          9.031408005          44.043000199   F   F   F
          4.513970478          4.515690276          44.042750655   F   F   F
          4.511511154          13.547090475          44.042750655   F   F   F
          13.544370755          4.515690276          44.042750655   F   F   F
          13.54191143          13.547090475          44.042750655   F   F   F
          0.0          0.0          50.447281171   F   F   F
          -0.002459324          9.031399392          50.447281171   F   F   F
          9.030400276          0.0          50.447281171   F   F   F
          9.027940952          9.031399392          50.447281171   F   F   F
          4.513970476          4.515699696          50.447281171   F   F   F
          4.511511152          13.547099088          50.447281171   F   F   F
          13.544370752          4.515699696          50.447281171   F   F   F
          13.541911428          13.547099088          50.447281171   F   F   F
