PerovskiteSurface_12951678_2            
    1.000000000000000     
    18.0608005523999999    0.0000000000000000    0.0000000000000000
    -0.0049186487000000   18.0627987840000017    0.0000000000000000
     0.0000000000000000    0.0000000000000000   62.4874992371000033
   H    C    N    I    Pb
   143    39    47    72    24
Selective dynamics
Direct
  0.4212389831223685  0.2312045273312364  0.5731056780420363   T   T   T
  0.3965751001493099  0.7891406244942654  0.5593500213730456   T   T   T
  0.9083902992866488  0.2599667639387410  0.5678856439812449   T   T   T
  0.8958617774668752  0.7788333778713761  0.5609391003790341   T   T   T
  0.3275833372599979  0.0023514062108339  0.5700959941596349   T   T   T
  0.3215051546829933  0.5582657094211781  0.5608876877452367   T   T   T
  0.8218303065527296  0.0685273125815662  0.5678038852432455   T   T   T
  0.0982242116464486  0.1940700553587314  0.5602771721351074   T   T   T
  0.0700169068550209  0.6780585771715520  0.5677553449684641   T   T   T
  0.6121403095160766  0.2032160798501824  0.5562055747680908   T   T   T
  0.5722819822699078  0.6990364979884377  0.5720951519261449   T   T   T
  0.3045009112031918  0.0933518042460125  0.5628587632484958   T   T   T
  0.2418238232859204  0.6122995946362988  0.5581904507950057   T   T   T
  0.7629379689266678  0.1256227204845729  0.5532322848736591   T   T   T
  0.0095422032099846  0.1596511659493322  0.5665256861064520   T   T   T
 -0.0252477101830240  0.6659988200109861  0.5700124542980121   T   T   T
  0.5331960308115762  0.1511522468871791  0.5634065179405642   T   T   T
  0.4773737720504393  0.6845512815392466  0.5733340152601287   T   T   T
  0.3097957435945818  0.4265671195336094  0.5622671291136114   T   T   T
  0.2214670505828804  0.9090926687159268  0.5668706118647622   T   T   T
  0.7757382692889438  0.9395670951001843  0.5758277589428318   T   T   T
  0.4309574078221878  0.3258302744064646  0.5666706103201071   T   T   T
  0.4463257236063679  0.8699363485800929  0.5529344702636128   T   T   T
  0.9399263125744904  0.3495500665543321  0.5616770735996888   T   T   T
  0.9474592050812345  0.8595222510627011  0.5557722303778220   T   T   T
  0.2213658850008812  0.3872490283049566  0.5613718462826294   T   T   T
  0.1358608272396967  0.9492280908671441  0.5600742220660591   T   T   T
  0.6879845488337724  0.9188840275172043  0.5662474808496489   T   T   T
  0.5513725748474818  0.3141421283730778  0.5558931835468571   T   T   T
  0.5601025378370439  0.8172083637067133  0.5577562705385368   T   T   T
  0.0591516974492850  0.3136625139358686  0.5560110139694101   T   T   T
  0.0603490169599669  0.8006491285821450  0.5574386671365198   T   T   T
  0.1645598315593237  0.5050666144828835  0.5581189139001771   T   T   T
  0.1835012984707513  0.0658954232624975  0.5557628833035357   T   T   T
  0.6718863881327827  0.0330095486232112  0.5499253019925110   T   T   T
  0.4514305644588193  0.2958447389693384  0.6737973595202227   T   T   T
  0.4636062449640114  0.8018399196393433  0.6737895312255218   T   T   T
  0.9479421842606512  0.3045591347873434  0.6718658962246581   T   T   T
  0.9553430531080082  0.8063317857840746  0.6722260071884687   T   T   T
  0.2915572981007222  0.0394315422429091  0.6753827927643613   T   T   T
  0.2916407078459273  0.5333582866635331  0.6766924240202279   T   T   T
  0.7949310383285572  0.0467355246383393  0.6728427893851384   T   T   T
  0.7979899039489180  0.5393113107636471  0.6732998102605584   T   T   T
  0.0747011446389413  0.1690152072026896  0.6476195501863165   T   T   T
  0.0762482655670119  0.6677520199174704  0.6472009671160990   T   T   T
  0.5783010036041063  0.1692956916710545  0.6459543534563295   T   T   T
  0.5758371760364670  0.6655559532268222  0.6448016986840214   T   T   T
  0.1708886830660470  0.4157219182135361  0.6441467988858699   T   T   T
  0.1659593990866462  0.9195853627453677  0.6448684762156194   T   T   T
  0.6630188995970365  0.4232284115409204  0.6449799140517027   T   T   T
  0.6699552491881321  0.9158125868270279  0.6458624327528572   T   T   T
  0.0479051413879072  0.2002776681168485  0.6727649871007018   T   T   T
  0.0612648844776439  0.7090677408441787  0.6719701739590316   T   T   T
  0.5529016956013171  0.1936608506306651  0.6718841221046283   T   T   T
  0.5622063306715326  0.6981633516473459  0.6707254945499250   T   T   T
  0.1952862806053686  0.4300521962198303  0.6708336232524544   T   T   T
  0.1873805198288070  0.9416901854426966  0.6712996552552938   T   T   T
  0.6916577065799157  0.4429889354695529  0.6709768915328101   T   T   T
  0.6966294845468251  0.9406634785137006  0.6716545018299866   T   T   T
  0.4209389182666989  0.3267311527589410  0.6489154790464071   T   T   T
  0.4211828185479632  0.8254481708119181  0.6499427359563043   T   T   T
  0.9205007474504899  0.3298574040033169  0.6461634544724972   T   T   T
  0.9112282511556258  0.8176072926406140  0.6477842507052505   T   T   T
  0.3291491721791567  0.0701648376597358  0.6515013331428099   T   T   T
  0.3167788333251229  0.5816007472778307  0.6539294922053442   T   T   T
  0.8188101992863227  0.0815871860632629  0.6479988626710481   T   T   T
  0.8286661672706166  0.5720478715170371  0.6487904160510802   T   T   T
 -0.0026997411997993  0.2474064381731570  0.6291861794095479   T   T   T
  0.9834113838594352  0.7317768178645848  0.6301481514403274   T   T   T
  0.4978611374797858  0.2504471613755011  0.6297172281478146   T   T   T
  0.4883518772547152  0.7416615836404428  0.6296766937671947   T   T   T
  0.2533272945248548 -0.0023722549478082  0.6303477022438793   T   T   T
  0.2440826322321882  0.5101733309046773  0.6312670073473512   T   T   T
  0.7435751888503129  0.0015148880797703  0.6291700375887496   T   T   T
  0.7458167703653019  0.5026378661747943  0.6290386508928874   T   T   T
  0.4487450123026875  0.3012839853932547  0.7688890099553589   F   F   F
  0.4487450122585699  0.8012839555529183  0.7688890099553589   F   F   F
  0.9487449526597018  0.3012839853932547  0.7688890099553589   F   F   F
  0.9487450123028651  0.8012839555529183  0.7688890099553589   F   F   F
  0.3012759983606372  0.0512944981605372  0.7688729763004289   F   F   F
  0.3012759983266733  0.5512945055790937  0.7688729763004289   F   F   F
  0.8012759685612991  0.0512944981605372  0.7688729763004289   F   F   F
  0.8012759685273281  0.5512945055790937  0.7688729763004289   F   F   F
  0.0787710025712300  0.1711805015919765  0.7434419989625454   F   F   F
  0.0787710025865564  0.6711804866994839  0.7434419989625454   F   F   F
  0.5787709951407791  0.1711805015919765  0.7434419989625454   F   F   F
  0.5787709951560984  0.6711804866994839  0.7434419989625454   F   F   F
  0.1711995005657982  0.4211744964317958  0.7434210181261207   F   F   F
  0.1711995005379165  0.9211745262167668  0.7434210181261207   F   F   F
  0.6711995005547209  0.4211744964317958  0.7434210181261207   F   F   F
  0.6711995005822118  0.9211745262167668  0.7434210181261207   F   F   F
  0.0512560010060099  0.1987150013639862  0.7688890099553589   F   F   F
  0.0512560010172578  0.6987149715236498  0.7688890099553589   F   F   F
  0.5512560009949325  0.1987150013639862  0.7688890099553589   F   F   F
  0.5512560010061875  0.6987149715236498  0.7688890099553589   F   F   F
  0.1987234949972319  0.4487039745014059  0.7688720226216859   F   F   F
  0.1987234950247228  0.9487040042863839  0.7688720226216859   F   F   F
  0.6987234949861616  0.4487039745014059  0.7688720226216859   F   F   F
  0.6987234950136525  0.9487040042863839  0.7688720226216859   F   F   F
  0.4212315082396927  0.3288174867596396  0.7434419989625454   F   F   F
  0.4212315082590763  0.8288174867596396  0.7434419989625454   F   F   F
  0.9212314486520796  0.3288174867596396  0.7434419989625454   F   F   F
  0.9212315082479989  0.8288174867596396  0.7434419989625454   F   F   F
  0.3288004994152729  0.0788249969468282  0.7434210181261207   F   F   F
  0.3288004994346494  0.5788249969468282  0.7434210181261207   F   F   F
  0.8288004994595681  0.0788249969468282  0.7434210181261207   F   F   F
  0.8288004994235791  0.5788249969468282  0.7434210181261207   F   F   F
  0.0000034999835279  0.2500014901345224  0.7258219718940495   F   F   F
  0.0000035000029044  0.7500014901345224  0.7258219718940495   F   F   F
  0.5000035166937522  0.2500014901345224  0.7258219718940495   F   F   F
  0.5000035166577632  0.7500014901345224  0.7258219718940495   F   F   F
  0.2500005066165230  0.0000000000000000  0.7258039712857141   F   F   F
  0.2500005066359066  0.5000000000000000  0.7258039712857141   F   F   F
  0.7500004768171777  0.0000000000000000  0.7258039712857141   F   F   F
  0.7500004768365613  0.5000000000000000  0.7258039712857141   F   F   F
  0.5941809014262585  0.5067447831413350  0.4918908774962185   T   T   T
  0.6528868174449414  0.5728668216101702  0.4798866719057132   T   T   T
  0.6565260545846360  0.6306160102176860  0.5341060545177599   T   T   T
  0.6597738922796504  0.6589967042723266  0.5072424983078496   T   T   T
  0.7734240658996695  0.5704124617988680  0.5298075305226071   T   T   T
  0.7873787774573472  0.5068056005005394  0.5085669578129070   T   T   T
  0.5984048061540136  0.4756476341946068  0.5263673287153225   T   T   T
  0.6847523434468035  0.4323151399471205  0.5209560612590077   T   T   T
  0.7191189069783670  0.4212073766831143  0.4896866418317821   T   T   T
  0.6518144682922419  0.4276437409719940  0.4696868485784945   T   T   T
  0.7298131513581397  0.5327088036902632  0.4527811580071204   T   T   T
  0.8026900945422435  0.5049143306913515  0.4697537097317833   T   T   T
  0.5335350259006927  0.6673392455989022  0.5226602235051054   T   T   T
  0.5336061028686536  0.6089258616143569  0.4999918842060817   T   T   T
  0.5282792437321848  0.5710038816626870  0.5265174759476442   T   T   T
  0.7694072717218156  0.6213883162528601  0.4826747468750933   T   T   T
  0.7753305712471819  0.6771275413198140  0.5063230253680435   T   T   T
  0.8498879028066506  0.6194156788794821  0.4988256998460239   T   T   T
  0.6576691517571452  0.4481215141734733  0.5598460335207551   T   T   T
  0.7418258772660818  0.4912615650618535  0.5529733930679115   T   T   T
  0.6604397780193343  0.5452419367953406  0.5575862922392413   T   T   T
  0.8177760080363722  0.4444580587666909  0.4355441678611284   T   T   T
  0.7949594982132374  0.3757363985792733  0.4545677765681694   T   T   T
  0.7015976597360503  0.5029342692292240  0.4146787802136732   T   T   T
  0.7009831040759290  0.2901202870800310  0.4456825363480844   T   T   T
  0.5958202037172011  0.4641959196742635  0.3921136261720349   T   T   T
  0.5950731474277469  0.2509529565717902  0.4230731667050204   T   T   T
  0.5419880113665247  0.3376904098427611  0.3961116963183265   T   T   T
  0.0184189804261522  0.2712175873111657  0.5601314599090651   T   T   T
  0.0098777714512627  0.7685866951322777  0.5602234070102085   T   T   T
  0.5207123278910923  0.2643473195444079  0.5604488986445358   T   T   T
  0.5107273604392524  0.7835701506880459  0.5605237970103929   T   T   T
  0.2249695837292035  0.5001654554597771  0.5593185571193939   T   T   T
  0.2205649873075981  0.0210673735504633  0.5605097777831508   T   T   T
  0.7241216537138063  0.0212031451156758  0.5581311976238336   T   T   T
 -0.0024158545422168  0.2495233218648797  0.6466534898799168   T   T   T
 -0.0060106629177671  0.7428705817306884  0.6470534898089692   T   T   T
  0.4996382737263228  0.2481235113099775  0.6471579148193632   T   T   T
  0.4985035625585517  0.7454264969340016  0.6468528766775044   T   T   T
  0.2442068181412285  0.4984525486230703  0.6484013777458620   T   T   T
  0.2475548492852996 -0.0049720788108898  0.6477177149909197   T   T   T
  0.7454565246472589  0.4980483527345798  0.6464482528064482   T   T   T
  0.7447448548707355 -0.0017306796550952  0.6465994628461110   T   T   T
  0.4999889731548066  0.2499949931900858  0.7432770133073987   F   F   F
  0.4999890327507259  0.7499949931900858  0.7432770133073987   F   F   F
  0.9999889731437364  0.2499949931900858  0.7432770133073987   F   F   F
  0.9999890327396557  0.7499949931900858  0.7432770133073987   F   F   F
  0.2500005066120252  0.0000010000111388  0.7432559728590533   F   F   F
  0.2500005066350184  0.5000010132981174  0.7432559728590533   F   F   F
  0.7500004768126800  0.0000010000111388  0.7432559728590533   F   F   F
  0.7500004768356803  0.5000010132981174  0.7432559728590533   F   F   F
  0.6522906234941223  0.5223189419064774  0.4896594041543827   T   T   T
  0.6375896304708576  0.6162807224202638  0.5179438112121330   T   T   T
  0.7610349423497729  0.5594705125499168  0.5129110296119748   T   T   T
  0.6586910517780817  0.4824003128749174  0.5274529876445820   T   T   T
  0.6941098945794910  0.4601244754989283  0.4782369329900891   T   T   T
  0.7520091979008244  0.4852494762122565  0.4618259188850940   T   T   T
  0.5537761335209487  0.6141380233722531  0.5165039415699086   T   T   T
  0.7891833501243192  0.6233134321217071  0.4992689337341701   T   T   T
  0.6817787776855460  0.4938378755534052  0.5505375729739335   T   T   T
  0.7726924514775528  0.4237131327383450  0.4458075101700357   T   T   T
  0.7085710436505431  0.3992742063408059  0.4319426728534643   T   T   T
  0.6779997532976936  0.4475996108584747  0.4167172418946154   T   T   T
  0.6775405148805448  0.3284991123887145  0.4340220068466751   T   T   T
  0.6185234935457307  0.4258614479385932  0.4039154124974699   T   T   T
  0.6181370912064079  0.3063803701977552  0.4212254870944612   T   T   T
  0.5883212110269274  0.3550102764364989  0.4061355776813007   T   T   T
  0.0423598956986190  0.2028215505224072  0.5618600553509341   T   T   T
  0.0181497519846721  0.6980885604748261  0.5648674912177895   T   T   T
  0.5563918164631760  0.2010751069260167  0.5594803304684814   T   T   T
  0.5206328384612930  0.7152230493067442  0.5672859993310766   T   T   T
  0.4514111435807006  0.2730220503002607  0.5662055915217475   T   T   T
  0.4463742604438485  0.8142401268661715  0.5563547785469712   T   T   T
  0.9498861310013078  0.2938368034296861  0.5627027866748444   T   T   T
  0.9462607461760173  0.8032620485047710  0.5582538242318809   T   T   T
  0.2536438753075608  0.4335469221026847  0.5609065491573966   T   T   T
  0.1918462075664625  0.9546525030431973  0.5623093209534723   T   T   T
  0.7309979401424956  0.9552379181352800  0.5666804276282836   T   T   T
  0.2903549764116247  0.0386615335536761  0.5636419161971494   T   T   T
  0.2653362641853038  0.5607024398666828  0.5588591480578624   T   T   T
  0.7752396386172684  0.0730224961824733  0.5585320648495929   T   T   T
  0.0424896838362405  0.2036454460706198  0.6565425042944306   T   T   T
  0.0475661571410700  0.7051914100383605  0.6561695673643911   T   T   T
  0.5461275014124471  0.2008948470325866  0.6557958678611353   T   T   T
  0.5486560243131491  0.7008195701706840  0.6548678486858363   T   T   T
  0.2012770860592401  0.4447331578869236  0.6551170737990019   T   T   T
  0.1974726743660981  0.9494442215072785  0.6553579666943372   T   T   T
  0.6972135059970386  0.4522262456158289  0.6549315610109707   T   T   T
  0.7015051231387335  0.9487065478958725  0.6555372436907586   T   T   T
  0.4550225738004179  0.2928763850756226  0.6575303820454026   T   T   T
  0.4590620252587471  0.7936691798587242  0.6576991835122138   T   T   T
  0.9530010636384179  0.2974638494199997  0.6557183609869742   T   T   T
  0.9515737164128086  0.7920929298256856  0.6564634763000174   T   T   T
  0.2917891134738564  0.0372148930562889  0.6590847849591307   T   T   T
  0.2869683732316364  0.5397208593594534  0.6605430693264452   T   T   T
  0.7889986527810690  0.0443524616276925  0.6566319454951036   T   T   T
  0.7930352670055338  0.5390276806409579  0.6570413139605912   T   T   T
  0.0458624996011352  0.2041195035215679  0.7527260184237576   F   F   F
  0.0458624996205117  0.7041195035215679  0.7527260184237576   F   F   F
  0.5458624958803711  0.2041195035215679  0.7527260184237576   F   F   F
  0.5458624958997476  0.7041195035215679  0.7527260184237576   F   F   F
  0.2041189968698021  0.4541010260417480  0.7527049779914137   F   F   F
  0.2041189968729569  0.9541009664717990  0.7527049779914137   F   F   F
  0.7041189670704568  0.4541010260417480  0.7527049779914137   F   F   F
  0.7041189670736117  0.9541009664717990  0.7527049779914137   F   F   F
  0.4541400075181912  0.2958885133423621  0.7527269721025078   F   F   F
  0.4541400074903166  0.7958885431273401  0.7527269721025078   F   F   F
  0.9541400075071209  0.2958885133423621  0.7527269721025078   F   F   F
  0.9541400671111475  0.7958885431273401  0.7527269721025078   F   F   F
  0.2958824932447897  0.0459005012963090  0.7527049779914137   F   F   F
  0.2958824932702626  0.5459005236627235  0.7527049779914137   F   F   F
  0.7958824634454515  0.0459005012963090  0.7527049779914137   F   F   F
  0.7958824634709174  0.5459005236627235  0.7527049779914137   F   F   F
  0.6780264025845526  0.5451537163441044  0.5119102394341453   T   T   T
  0.5072989171172061  0.0018291305909827  0.5525551857998757   T   T   T
  0.4555030915676667  0.4681864927789158  0.5535853996567587   T   T   T
 -0.0028532362882151 -0.0042892457435845  0.5529836657885501   T   T   T
  0.0032947207785911  0.4856182143283017  0.5525003686863779   T   T   T
  0.2382742958379490  0.2336651701501920  0.5533539932178586   T   T   T
  0.2366955684755152  0.7575744229906274  0.5529493044373007   T   T   T
  0.7396751420259309  0.2656760765200902  0.5506005491985080   T   T   T
  0.7395127168534004  0.7562650501109091  0.5528531749743538   T   T   T
 -0.0073515121016374 -0.0014482584367620  0.6547270357586245   T   T   T
 -0.0029995479244939  0.5030077994815801  0.6542473675174691   T   T   T
  0.4942547552060179 -0.0034660532557848  0.6543821667803040   T   T   T
  0.4948434326671325  0.5028908785692097  0.6542419567705969   T   T   T
  0.2486779493306260  0.2414504408613699  0.6549516282962818   T   T   T
  0.2563215448771205  0.7465294560679775  0.6542306110365742   T   T   T
  0.7510683254287668  0.2466385572743538  0.6536743337179700   T   T   T
  0.7499343052192139  0.7446165764991576  0.6542123347391550   T   T   T
  0.1338059529450821  0.1059507320988674  0.6084722558990067   T   T   T
  0.1332885612787270  0.6114309462853339  0.6062855524538876   T   T   T
  0.6355291834594783  0.1104061062137180  0.6069188706742499   T   T   T
  0.6288172644985740  0.6094445061656661  0.6046421852125197   T   T   T
  0.3566092906585692  0.3811762725156315  0.6107297716477939   T   T   T
  0.3531358019561513  0.8931004853938369  0.6028172811312208   T   T   T
  0.8580651326040070  0.3859030198551284  0.6076789900066607   T   T   T
  0.8562577836492883  0.8849203655339170  0.6068285758428608   T   T   T
  0.1124436550110179  0.3604787514620409  0.6067282936356571   T   T   T
  0.1031922680422116  0.8564770408487128  0.6082502082391078   T   T   T
  0.6079095988780662  0.3628347404840639  0.6065637314290914   T   T   T
  0.6089168583008180  0.8590486934075043  0.6073577555098379   T   T   T
  0.3878187634749866  0.1368381758717912  0.6053583158634103   T   T   T
  0.3829036361811307  0.6374548278330221  0.6021588489025081   T   T   T
  0.8872473290729868  0.1402044115440578  0.6016553002214954   T   T   T
  0.8795778605704705  0.6297417686708623  0.6023258302071677   T   T   T
  0.0000000000000000  0.0000000000000000  0.7549279928135135   F   F   F
  0.0000000000193765  0.5000000000000000  0.7549279928135135   F   F   F
  0.4999999999889297  0.0000000000000000  0.7549279928135135   F   F   F
  0.5000000000083062  0.5000000000000000  0.7549279928135135   F   F   F
  0.2500005066262148  0.2500000000000000  0.7549390196750210   F   F   F
  0.2500005066455913  0.7500000000000000  0.7549390196750210   F   F   F
  0.7500004768268695  0.2500000000000000  0.7549390196750210   F   F   F
  0.7500004768462460  0.7500000000000000  0.7549390196750210   F   F   F
  0.1357904970913637  0.1142100020970958  0.7047830224073479   F   F   F
  0.1357904970574069  0.6142100095710177  0.7047830224073479   F   F   F
  0.6357904672366530  0.1142100020970958  0.7047830224073479   F   F   F
  0.6357904672580617  0.6142100095710177  0.7047830224073479   F   F   F
  0.3642095029149104  0.3857899904289823  0.7047830224073479   F   F   F
  0.3642095029342869  0.8857899904289823  0.7047830224073479   F   F   F
  0.8642095327474735  0.3857899904289823  0.7047830224073479   F   F   F
  0.8642095327114845  0.8857899904289823  0.7047830224073479   F   F   F
  0.1142179891403217  0.3642190098927216  0.7047809958420075   F   F   F
  0.1142179891596982  0.8642190098927216  0.7047809958420075   F   F   F
  0.6142179966039976  0.3642190098927216  0.7047809958420075   F   F   F
  0.6142179965680086  0.8642190098927216  0.7047809958420075   F   F   F
  0.3857820034204806  0.1357814967840127  0.7047820091166770   F   F   F
  0.3857820033926060  0.6357815265689908  0.7047820091166770   F   F   F
  0.8857820034094104  0.1357814967840127  0.7047820091166770   F   F   F
  0.8857820033815287  0.6357815265689908  0.7047820091166770   F   F   F
  0.1346669942216394  0.1153320073988340  0.8012560009966521   F   F   F
  0.1346669941856504  0.6153320073988340  0.8012560009966521   F   F   F
  0.6346669793164352  0.1153320073988340  0.8012560009966521   F   F   F
  0.6346669793358117  0.6153320073988340  0.8012560009966521   F   F   F
  0.3653329908925258  0.3846679926011660  0.8012560009966521   F   F   F
  0.3653329908565368  0.8846679926011589  0.8012560009966521   F   F   F
  0.8653329610931877  0.3846679926011660  0.8012560009966521   F   F   F
  0.8653329610571987  0.8846679926011589  0.8012560009966521   F   F   F
  0.1153285056432978  0.3653370142087482  0.8012650012928191   F   F   F
  0.1153285056073088  0.8653370142087482  0.8012650012928191   F   F   F
  0.6153284907380936  0.3653370142087482  0.8012650012928191   F   F   F
  0.6153284907574701  0.8653370142087482  0.8012650012928191   F   F   F
  0.3846715092631925  0.1346630006837373  0.8012650012928191   F   F   F
  0.3846715092785189  0.6346629857912518  0.8012650012928191   F   F   F
  0.8846715092521222  0.1346630006837373  0.8012650012928191   F   F   F
  0.8846715092674415  0.6346629857912518  0.8012650012928191   F   F   F
 -0.0046167446964436 -0.0040854208961848  0.6044734091443136   T   T   T
 -0.0036734485503426  0.4937375570983901  0.6030452154598486   T   T   T
  0.4999406721724449 -0.0022673896696613  0.6040824789098226   T   T   T
  0.4886657598321658  0.4928377850824218  0.6042715113179270   T   T   T
  0.2433688434471808  0.2425349597752432  0.6049589351922897   T   T   T
  0.2432480969071481  0.7501983846034920  0.6041664252947183   T   T   T
  0.7438454437989597  0.2530081781859531  0.6033523050897788   T   T   T
  0.7445412139729158  0.7429076249921678  0.6037241551746338   T   T   T
  0.0000005000032601  0.0000004999778866  0.7048289775829417   F   F   F
  0.0000005000163412  0.5000004768364050  0.7048289775829417   F   F   F
  0.5000004768481432  0.0000004999778866  0.7048289775829417   F   F   F
  0.5000004768612172  0.5000004768364050  0.7048289775829417   F   F   F
  0.2499999999728644  0.2499994784861386  0.7048249840801901   F   F   F
  0.2500000000044054  0.7499995231635950  0.7048249840801901   F   F   F
  0.7500000000171596  0.2499994784861386  0.7048249840801901   F   F   F
  0.7499999999933351  0.7499995231635950  0.7048249840801901   F   F   F
  0.0000000000000000  0.0000000000000000  0.8073179721848831   F   F   F
  0.0000000000193765  0.5000000000000000  0.8073179721848831   F   F   F
  0.4999999999889297  0.0000000000000000  0.8073179721848831   F   F   F
  0.5000000000083062  0.5000000000000000  0.8073179721848831   F   F   F
  0.2500000000041496  0.2500000000000000  0.8073179721848831   F   F   F
  0.2500000000235332  0.7500000000000000  0.8073179721848831   F   F   F
  0.7499999999930793  0.2500000000000000  0.8073179721848831   F   F   F
  0.7500000000124558  0.7500000000000000  0.8073179721848831   F   F   F
 
  0.00000000E+00  0.00000000E+00  0.00000000E+00
  0.00000000E+00  0.00000000E+00  0.00000000E+00
  0.00000000E+00  0.00000000E+00  0.00000000E+00
  0.00000000E+00  0.00000000E+00  0.00000000E+00
  0.00000000E+00  0.00000000E+00  0.00000000E+00
  0.00000000E+00  0.00000000E+00  0.00000000E+00
  0.00000000E+00  0.00000000E+00  0.00000000E+00
  0.00000000E+00  0.00000000E+00  0.00000000E+00
  0.00000000E+00  0.00000000E+00  0.00000000E+00
  0.00000000E+00  0.00000000E+00  0.00000000E+00
  0.00000000E+00  0.00000000E+00  0.00000000E+00
  0.00000000E+00  0.00000000E+00  0.00000000E+00
  0.00000000E+00  0.00000000E+00  0.00000000E+00
  0.00000000E+00  0.00000000E+00  0.00000000E+00
  0.00000000E+00  0.00000000E+00  0.00000000E+00
  0.00000000E+00  0.00000000E+00  0.00000000E+00
  0.00000000E+00  0.00000000E+00  0.00000000E+00
  0.00000000E+00  0.00000000E+00  0.00000000E+00
  0.00000000E+00  0.00000000E+00  0.00000000E+00
  0.00000000E+00  0.00000000E+00  0.00000000E+00
  0.00000000E+00  0.00000000E+00  0.00000000E+00
  0.00000000E+00  0.00000000E+00  0.00000000E+00
  0.00000000E+00  0.00000000E+00  0.00000000E+00
  0.00000000E+00  0.00000000E+00  0.00000000E+00
  0.00000000E+00  0.00000000E+00  0.00000000E+00
  0.00000000E+00  0.00000000E+00  0.00000000E+00
  0.00000000E+00  0.00000000E+00  0.00000000E+00
  0.00000000E+00  0.00000000E+00  0.00000000E+00
  0.00000000E+00  0.00000000E+00  0.00000000E+00
  0.00000000E+00  0.00000000E+00  0.00000000E+00
  0.00000000E+00  0.00000000E+00  0.00000000E+00
  0.00000000E+00  0.00000000E+00  0.00000000E+00
  0.00000000E+00  0.00000000E+00  0.00000000E+00
  0.00000000E+00  0.00000000E+00  0.00000000E+00
  0.00000000E+00  0.00000000E+00  0.00000000E+00
  0.00000000E+00  0.00000000E+00  0.00000000E+00
  0.00000000E+00  0.00000000E+00  0.00000000E+00
  0.00000000E+00  0.00000000E+00  0.00000000E+00
  0.00000000E+00  0.00000000E+00  0.00000000E+00
  0.00000000E+00  0.00000000E+00  0.00000000E+00
  0.00000000E+00  0.00000000E+00  0.00000000E+00
  0.00000000E+00  0.00000000E+00  0.00000000E+00
  0.00000000E+00  0.00000000E+00  0.00000000E+00
  0.00000000E+00  0.00000000E+00  0.00000000E+00
  0.00000000E+00  0.00000000E+00  0.00000000E+00
  0.00000000E+00  0.00000000E+00  0.00000000E+00
  0.00000000E+00  0.00000000E+00  0.00000000E+00
  0.00000000E+00  0.00000000E+00  0.00000000E+00
  0.00000000E+00  0.00000000E+00  0.00000000E+00
  0.00000000E+00  0.00000000E+00  0.00000000E+00
  0.00000000E+00  0.00000000E+00  0.00000000E+00
  0.00000000E+00  0.00000000E+00  0.00000000E+00
  0.00000000E+00  0.00000000E+00  0.00000000E+00
  0.00000000E+00  0.00000000E+00  0.00000000E+00
  0.00000000E+00  0.00000000E+00  0.00000000E+00
  0.00000000E+00  0.00000000E+00  0.00000000E+00
  0.00000000E+00  0.00000000E+00  0.00000000E+00
  0.00000000E+00  0.00000000E+00  0.00000000E+00
  0.00000000E+00  0.00000000E+00  0.00000000E+00
  0.00000000E+00  0.00000000E+00  0.00000000E+00
  0.00000000E+00  0.00000000E+00  0.00000000E+00
  0.00000000E+00  0.00000000E+00  0.00000000E+00
  0.00000000E+00  0.00000000E+00  0.00000000E+00
  0.00000000E+00  0.00000000E+00  0.00000000E+00
  0.00000000E+00  0.00000000E+00  0.00000000E+00
  0.00000000E+00  0.00000000E+00  0.00000000E+00
  0.00000000E+00  0.00000000E+00  0.00000000E+00
  0.00000000E+00  0.00000000E+00  0.00000000E+00
  0.00000000E+00  0.00000000E+00  0.00000000E+00
  0.00000000E+00  0.00000000E+00  0.00000000E+00
  0.00000000E+00  0.00000000E+00  0.00000000E+00
  0.00000000E+00  0.00000000E+00  0.00000000E+00
  0.00000000E+00  0.00000000E+00  0.00000000E+00
  0.00000000E+00  0.00000000E+00  0.00000000E+00
  0.00000000E+00  0.00000000E+00  0.00000000E+00
  0.00000000E+00  0.00000000E+00  0.00000000E+00
  0.00000000E+00  0.00000000E+00  0.00000000E+00
  0.00000000E+00  0.00000000E+00  0.00000000E+00
  0.00000000E+00  0.00000000E+00  0.00000000E+00
  0.00000000E+00  0.00000000E+00  0.00000000E+00
  0.00000000E+00  0.00000000E+00  0.00000000E+00
  0.00000000E+00  0.00000000E+00  0.00000000E+00
  0.00000000E+00  0.00000000E+00  0.00000000E+00
  0.00000000E+00  0.00000000E+00  0.00000000E+00
  0.00000000E+00  0.00000000E+00  0.00000000E+00
  0.00000000E+00  0.00000000E+00  0.00000000E+00
  0.00000000E+00  0.00000000E+00  0.00000000E+00
  0.00000000E+00  0.00000000E+00  0.00000000E+00
  0.00000000E+00  0.00000000E+00  0.00000000E+00
  0.00000000E+00  0.00000000E+00  0.00000000E+00
  0.00000000E+00  0.00000000E+00  0.00000000E+00
  0.00000000E+00  0.00000000E+00  0.00000000E+00
  0.00000000E+00  0.00000000E+00  0.00000000E+00
  0.00000000E+00  0.00000000E+00  0.00000000E+00
  0.00000000E+00  0.00000000E+00  0.00000000E+00
  0.00000000E+00  0.00000000E+00  0.00000000E+00
  0.00000000E+00  0.00000000E+00  0.00000000E+00
  0.00000000E+00  0.00000000E+00  0.00000000E+00
  0.00000000E+00  0.00000000E+00  0.00000000E+00
  0.00000000E+00  0.00000000E+00  0.00000000E+00
  0.00000000E+00  0.00000000E+00  0.00000000E+00
  0.00000000E+00  0.00000000E+00  0.00000000E+00
  0.00000000E+00  0.00000000E+00  0.00000000E+00
  0.00000000E+00  0.00000000E+00  0.00000000E+00
  0.00000000E+00  0.00000000E+00  0.00000000E+00
  0.00000000E+00  0.00000000E+00  0.00000000E+00
  0.00000000E+00  0.00000000E+00  0.00000000E+00
  0.00000000E+00  0.00000000E+00  0.00000000E+00
  0.00000000E+00  0.00000000E+00  0.00000000E+00
  0.00000000E+00  0.00000000E+00  0.00000000E+00
  0.00000000E+00  0.00000000E+00  0.00000000E+00
  0.00000000E+00  0.00000000E+00  0.00000000E+00
  0.00000000E+00  0.00000000E+00  0.00000000E+00
  0.00000000E+00  0.00000000E+00  0.00000000E+00
  0.00000000E+00  0.00000000E+00  0.00000000E+00
  0.00000000E+00  0.00000000E+00  0.00000000E+00
  0.00000000E+00  0.00000000E+00  0.00000000E+00
  0.00000000E+00  0.00000000E+00  0.00000000E+00
  0.00000000E+00  0.00000000E+00  0.00000000E+00
  0.00000000E+00  0.00000000E+00  0.00000000E+00