PerovskiteSurface_12951678_2            
    1.000000000000000     
    18.0608005523999999    0.0000000000000000    0.0000000000000000
    -0.0049186487000000   18.0627987840000017    0.0000000000000000
     0.0000000000000000    0.0000000000000000   62.4874992371000033
   H    C    N    I    Pb
   143    39    47    72    24
Selective dynamics
Direct
  0.4553759120774037  0.3321476355134860  0.5638613385264969   T   T   T
  0.3962013085092637  0.7978818886026806  0.5580438591167454   T   T   T
  0.9048682504422947  0.2955225644031076  0.5540746766345870   T   T   T
  0.9107630825148706  0.7530904692132721  0.5652917662604181   T   T   T
  0.3178799159991860  0.0076509403281787  0.5709080086786434   T   T   T
  0.3312208874397179  0.5518599456291685  0.5566416111798569   T   T   T
  0.8297019733907260 -0.0061387283821889  0.5652157141649171   T   T   T
  0.0485640999844511  0.1813391173695077  0.5774949783142128   T   T   T
  0.1051349516624735  0.7015994080929424  0.5594599105879672   T   T   T
  0.5546542473123902  0.1556955300686519  0.5668654754322653   T   T   T
  0.5506565610491128  0.6819813132781339  0.5747214672291326   T   T   T
  0.2934558967711788  0.0987821142728378  0.5636856581790760   T   T   T
  0.2578740117678474  0.6162798408104090  0.5558265784931462   T   T   T
  0.8116838771850808  0.0885360913773814  0.5612337223510053   T   T   T
 -0.0453604628738472  0.1817502593286670  0.5714651920692814   T   T   T
  0.0184443460667261  0.6604206945761144  0.5638694169059323   T   T   T
  0.5667850342607648  0.2497424698206961  0.5725438660966878   T   T   T
  0.4548091204026314  0.6836123662418051  0.5739118474611971   T   T   T
  0.3019581787323726  0.4244392788527934  0.5652190563847560   T   T   T
  0.2141378616169970  0.9135165655254535  0.5673818520349447   T   T   T
  0.7134741093241193  0.9101148661424512  0.5616423879781984   T   T   T
  0.3756783040968135  0.2822097968382711  0.5565646910443821   T   T   T
  0.4578242222403600  0.8702387875530195  0.5522707570192019   T   T   T
  0.9694818538035795  0.3685589069980254  0.5505697172125027   T   T   T
  0.9361148890216171  0.8453368671856131  0.5599902078003363   T   T   T
  0.2090892222995454  0.4017727844864661  0.5692410261880591   T   T   T
  0.1278982830172260  0.9516811563732949  0.5600257565275465   T   T   T
  0.6308073111829580  0.9604879206567127  0.5581075093052907   T   T   T
  0.4346810149953886  0.1695615963535585  0.5557282439519110   T   T   T
  0.5623994871860239  0.7991094992228546  0.5594723573176233   T   T   T
  0.0678496517093172  0.2985552613685521  0.5629906890076750   T   T   T
  0.0586556066424534  0.8188022903894180  0.5556953401272750   T   T   T
  0.1690787358320256  0.5222168305825353  0.5624795480872997   T   T   T
  0.1736806045453742  0.0691261879772614  0.5558283553775399   T   T   T
  0.6879270228686948  0.0736728046594984  0.5568480599010154   T   T   T
  0.4485639536327681  0.2861098033211608  0.6742958452020983   T   T   T
  0.5046288278546602  0.7905977966716665  0.6783145187525711   T   T   T
  0.9417396554607962  0.3068040874276310  0.6708940572456636   T   T   T
  0.9615705097287255  0.8085147935864412  0.6724192162950080   T   T   T
  0.2959136543196861  0.0478556440933156  0.6728709013079096   T   T   T
  0.2957184644385523  0.5482851892556966  0.6738278763184333   T   T   T
  0.7903319029381018  0.0445447018380133  0.6744864644393912   T   T   T
  0.7849358079456999  0.5375893187758135  0.6757556603971974   T   T   T
  0.0694046887709207  0.1682207939331180  0.6485607191836622   T   T   T
  0.0875839977377668  0.6771454404153378  0.6467874123381083   T   T   T
  0.5787624195484895  0.1677453851498964  0.6448704304079687   T   T   T
  0.5719415890692028  0.6582361435017344  0.6389029572945399   T   T   T
  0.1691807116780707  0.4206901661995214  0.6461778272912055   T   T   T
  0.1655535397076676  0.9229899043889863  0.6457024036980984   T   T   T
  0.6677082680393518  0.4218980624697398  0.6416979548955073   T   T   T
  0.6701850152355994  0.9168766108904761  0.6445644545786552   T   T   T
  0.0377743813468297  0.1992267649034430  0.6732667735658021   T   T   T
  0.0764170530317437  0.7256891128593786  0.6707377113708068   T   T   T
  0.5521373342221308  0.1869332556218239  0.6711042980233322   T   T   T
  0.5874830439949112  0.6866894118737691  0.6651617930545115   T   T   T
  0.1937258125422383  0.4462470641765524  0.6721117738127750   T   T   T
  0.1916779876954365  0.9484796562095289  0.6714838346569069   T   T   T
  0.6810876751577284  0.4434030762248021  0.6685013890194824   T   T   T
  0.6917677054512462  0.9400839595067924  0.6708826493359594   T   T   T
  0.4189397590379605  0.3220122524279505  0.6499082144356449   T   T   T
  0.4300762046169306  0.8122453764112658  0.6618908900317483   T   T   T
  0.9216916915528045  0.3343522913168548  0.6447958908117984   T   T   T
  0.9026805341741772  0.8016995375430545  0.6506165861670342   T   T   T
  0.3274324622557070  0.0760149517299415  0.6478426365906452   T   T   T
  0.3263315620362284  0.5782675095224648  0.6489435240866946   T   T   T
  0.8222295371774117  0.0787308426963964  0.6501504420291953   T   T   T
  0.8348587046693617  0.5647277515207865  0.6535184294000504   T   T   T
  0.0000447802156480  0.2506072012554993  0.6290402777165409   T   T   T
  0.9792235368348399  0.7212241557243053  0.6319429567024326   T   T   T
  0.4980229540626335  0.2510702394497559  0.6297184585662696   T   T   T
  0.4683764114623890  0.7329022547542340  0.6346232387242626   T   T   T
  0.2488102093068757  0.0003232020790984  0.6290387468791330   T   T   T
  0.2498508729157337  0.5009535181999438  0.6298301266348466   T   T   T
  0.7502864559110742  0.0017756500793252  0.6296846312555634   T   T   T
  0.7628087622615238  0.4970672227730076  0.6297152680428597   T   T   T
  0.4487450123026875  0.3012839853932547  0.7688890099553589   F   F   F
  0.4487450122585699  0.8012839555529183  0.7688890099553589   F   F   F
  0.9487449526597018  0.3012839853932547  0.7688890099553589   F   F   F
  0.9487450123028651  0.8012839555529183  0.7688890099553589   F   F   F
  0.3012759983606372  0.0512944981605372  0.7688729763004289   F   F   F
  0.3012759983266733  0.5512945055790937  0.7688729763004289   F   F   F
  0.8012759685612991  0.0512944981605372  0.7688729763004289   F   F   F
  0.8012759685273281  0.5512945055790937  0.7688729763004289   F   F   F
  0.0787710025712300  0.1711805015919765  0.7434419989625454   F   F   F
  0.0787710025865564  0.6711804866994839  0.7434419989625454   F   F   F
  0.5787709951407791  0.1711805015919765  0.7434419989625454   F   F   F
  0.5787709951560984  0.6711804866994839  0.7434419989625454   F   F   F
  0.1711995005657982  0.4211744964317958  0.7434210181261207   F   F   F
  0.1711995005379165  0.9211745262167668  0.7434210181261207   F   F   F
  0.6711995005547209  0.4211744964317958  0.7434210181261207   F   F   F
  0.6711995005822118  0.9211745262167668  0.7434210181261207   F   F   F
  0.0512560010060099  0.1987150013639862  0.7688890099553589   F   F   F
  0.0512560010172578  0.6987149715236498  0.7688890099553589   F   F   F
  0.5512560009949325  0.1987150013639862  0.7688890099553589   F   F   F
  0.5512560010061875  0.6987149715236498  0.7688890099553589   F   F   F
  0.1987234949972319  0.4487039745014059  0.7688720226216859   F   F   F
  0.1987234950247228  0.9487040042863839  0.7688720226216859   F   F   F
  0.6987234949861616  0.4487039745014059  0.7688720226216859   F   F   F
  0.6987234950136525  0.9487040042863839  0.7688720226216859   F   F   F
  0.4212315082396927  0.3288174867596396  0.7434419989625454   F   F   F
  0.4212315082590763  0.8288174867596396  0.7434419989625454   F   F   F
  0.9212314486520796  0.3288174867596396  0.7434419989625454   F   F   F
  0.9212315082479989  0.8288174867596396  0.7434419989625454   F   F   F
  0.3288004994152729  0.0788249969468282  0.7434210181261207   F   F   F
  0.3288004994346494  0.5788249969468282  0.7434210181261207   F   F   F
  0.8288004994595681  0.0788249969468282  0.7434210181261207   F   F   F
  0.8288004994235791  0.5788249969468282  0.7434210181261207   F   F   F
  0.0000034999835279  0.2500014901345224  0.7258219718940495   F   F   F
  0.0000035000029044  0.7500014901345224  0.7258219718940495   F   F   F
  0.5000035166937522  0.2500014901345224  0.7258219718940495   F   F   F
  0.5000035166577632  0.7500014901345224  0.7258219718940495   F   F   F
  0.2500005066165230  0.0000000000000000  0.7258039712857141   F   F   F
  0.2500005066359066  0.5000000000000000  0.7258039712857141   F   F   F
  0.7500004768171777  0.0000000000000000  0.7258039712857141   F   F   F
  0.7500004768365613  0.5000000000000000  0.7258039712857141   F   F   F
  0.6365180321494056  0.5511657435260425  0.4884953109621630   T   T   T
  0.7223950086394609  0.5972652596218057  0.4912376829471398   T   T   T
  0.6581306580780416  0.5645489402069981  0.5452869482834082   T   T   T
  0.7082556118455680  0.6291190167159023  0.5298339463546896   T   T   T
  0.7733857325990795  0.5054529892711653  0.5409488111099900   T   T   T
  0.7927262402868421  0.4547191337193087  0.5173928545628713   T   T   T
  0.5943130871416145  0.4674799581155959  0.5157926383075889   T   T   T
  0.6709508365354315  0.4126327528252021  0.5072892896092834   T   T   T
  0.7844087018915802  0.4702966669819122  0.4816905464128814   T   T   T
  0.6944532090458446  0.4388813239531248  0.4750176750933239   T   T   T
  0.6835892645373993  0.5558265878320601  0.4509841305814054   T   T   T
  0.7793593541433048  0.5685147047249811  0.4551426270567904   T   T   T
  0.5741794916607800  0.6581358208266684  0.5330679100881561   T   T   T
  0.6011152183119085  0.6513046936981269  0.5059963739877587   T   T   T
  0.5494349075683788  0.5783382385623639  0.5186258807092511   T   T   T
  0.8420288987484388  0.5709362576058107  0.4997642906944643   T   T   T
  0.8171678691215596  0.6236903489883471  0.5228827410226430   T   T   T
  0.8852060567931462  0.5539035411843555  0.5247977276903522   T   T   T
  0.6177266725864725  0.3727893389231144  0.5422704117913567   T   T   T
  0.7121273400366440  0.3951531377633690  0.5450927513463475   T   T   T
  0.6414140655304192  0.4570017639513203  0.5543872721398541   T   T   T
  0.7647994570268326  0.5037569654768682  0.4217532145116488   T   T   T
  0.8004844278843681  0.4383419731166698  0.4399600231403579   T   T   T
  0.6192552023212153  0.5080772626846002  0.4177350931093879   T   T   T
  0.7385132341214928  0.3226662263529570  0.4439585445574957   T   T   T
  0.5116128033918299  0.4267884002219879  0.4104821116733670   T   T   T
  0.6306128015763048  0.2410750317458511  0.4368207403829991   T   T   T
  0.5167224629040184  0.2927557376967365  0.4199279998666802   T   T   T
  0.0126174054271215  0.2740650241043691  0.5622924061012465   T   T   T
  0.0204256934265081  0.7733224416238478  0.5589052287899866   T   T   T
  0.4660508280051009  0.2188052723030944  0.5603301916491044   T   T   T
  0.5072470267784568  0.7750921749408437  0.5615173528982238   T   T   T
  0.2282086793340819  0.5092191316351268  0.5615680076364853   T   T   T
  0.2113624397253288  0.0249668162836297  0.5607293184187291   T   T   T
  0.7215491783100261  0.0242310797986242  0.5594025074756216   T   T   T
 -0.0041595869623462  0.2515483928396042  0.6464542904230191   T   T   T
 -0.0042819153089714  0.7402419552906057  0.6478688197699712   T   T   T
  0.4988368843777273  0.2449397207040405  0.6470904969657837   T   T   T
  0.4998228850150915  0.7355956735462980  0.6495426777066791   T   T   T
  0.2478401148893642  0.4993923019697397  0.6472746206250259   T   T   T
  0.2465346256731773 -0.0004378961053283  0.6464885778369769   T   T   T
  0.7503938719270966  0.4949347797650137  0.6468021886867287   T   T   T
  0.7463963171702687 -0.0021166807257539  0.6470681100268696   T   T   T
  0.4999889731548066  0.2499949931900858  0.7432770133073987   F   F   F
  0.4999890327507259  0.7499949931900858  0.7432770133073987   F   F   F
  0.9999889731437364  0.2499949931900858  0.7432770133073987   F   F   F
  0.9999890327396557  0.7499949931900858  0.7432770133073987   F   F   F
  0.2500005066120252  0.0000010000111388  0.7432559728590533   F   F   F
  0.2500005066350184  0.5000010132981174  0.7432559728590533   F   F   F
  0.7500004768126800  0.0000010000111388  0.7432559728590533   F   F   F
  0.7500004768356803  0.5000010132981174  0.7432559728590533   F   F   F
  0.6950933719829023  0.5431107209458583  0.4924010073409792   T   T   T
  0.6652254986903489  0.5863791934600849  0.5290459162539722   T   T   T
  0.7766966591563039  0.5094483281855483  0.5234666470837173   T   T   T
  0.6518849576107671  0.4522514018461643  0.5194055529107523   T   T   T
  0.7291220523281394  0.4887113064416293  0.4765538829285378   T   T   T
  0.7355021610436538  0.5262336557438659  0.4545727922911818   T   T   T
  0.5936323718336687  0.6193872508292356  0.5207784191046568   T   T   T
  0.8324155453203771  0.5683614163218195  0.5170864497353467   T   T   T
  0.6575261701351548  0.4186750984377851  0.5415817689262840   T   T   T
  0.7511386842169973  0.4716652429597688  0.4361897789643560   T   T   T
  0.6863334664966548  0.4211742915892050  0.4314888243515374   T   T   T
  0.6217635946084386  0.4493831991467507  0.4219858193881310   T   T   T
  0.6885006641979892  0.3457217253907554  0.4367453917832445   T   T   T
  0.5611413544168964  0.4036300184481202  0.4179078202853124   T   T   T
  0.6279006996121043  0.2996274863189076  0.4326767615478047   T   T   T
  0.5640420271695574  0.3284698403062183  0.4232329025630516   T   T   T
  0.0051757607330005  0.2064498813218845  0.5697757972481972   T   T   T
  0.0488275122672853  0.7066119077310975  0.5603426311974768   T   T   T
  0.5360004256168156  0.2088016877462972  0.5654123990515916   T   T   T
  0.5036913486600100  0.7069695913555287  0.5688865787774999   T   T   T
  0.4315520223921365  0.2826857984555310  0.5597573790923629   T   T   T
  0.4497709918464315  0.8153512493498408  0.5559446702883444   T   T   T
  0.9588701777733819  0.3140050665872227  0.5541095479309622   T   T   T
  0.9500583492815227  0.7904624675739557  0.5606029590961887   T   T   T
  0.2476331659506031  0.4398431146491516  0.5646665507038813   T   T   T
  0.1839604607807649  0.9578720575288215  0.5622192146821138   T   T   T
  0.6873301916782989  0.9601968586464011  0.5597641492062487   T   T   T
  0.2805499366941275  0.0436963677447687  0.5643089441806692   T   T   T
  0.2752797800502549  0.5624076558331471  0.5571395129565484   T   T   T
  0.7930266154076273  0.0350243727168347  0.5615974760143099   T   T   T
  0.0365163302407948  0.2035320738543280  0.6570038668177518   T   T   T
  0.0575652857111340  0.7135624803115496  0.6557682749342465   T   T   T
  0.5456631287437083  0.1968517313842653  0.6551234898613384   T   T   T
  0.5569066320466438  0.6911611745908937  0.6514482693226219   T   T   T
  0.2008775835724634  0.4528974098848801  0.6560071666891690   T   T   T
  0.1985287769772449  0.9544556444442117  0.6553606699535672   T   T   T
  0.6960606270267012  0.4515303481843411  0.6528900413593451   T   T   T
  0.7003327804345812  0.9486309615108839  0.6549078658978402   T   T   T
  0.4528947074250374  0.2867181128641641  0.6580333263411464   T   T   T
  0.4768478874680280  0.7820073968204300  0.6642943002616268   T   T   T
  0.9509184489769595  0.3007024505437784  0.6548580041499372   T   T   T
  0.9518044033824445  0.7875119871193638  0.6575289483596110   T   T   T
  0.2925323953169715  0.0436149721096696  0.6566251497326949   T   T   T
  0.2924260218167929  0.5444849551209370  0.6575717167379704   T   T   T
  0.7884795958863918  0.0430283350295222  0.6581925997910799   T   T   T
  0.7912294891753926  0.5359021597771195  0.6595614238689795   T   T   T
  0.0458624996011352  0.2041195035215679  0.7527260184237576   F   F   F
  0.0458624996205117  0.7041195035215679  0.7527260184237576   F   F   F
  0.5458624958803711  0.2041195035215679  0.7527260184237576   F   F   F
  0.5458624958997476  0.7041195035215679  0.7527260184237576   F   F   F
  0.2041189968698021  0.4541010260417480  0.7527049779914137   F   F   F
  0.2041189968729569  0.9541009664717990  0.7527049779914137   F   F   F
  0.7041189670704568  0.4541010260417480  0.7527049779914137   F   F   F
  0.7041189670736117  0.9541009664717990  0.7527049779914137   F   F   F
  0.4541400075181912  0.2958885133423621  0.7527269721025078   F   F   F
  0.4541400074903166  0.7958885431273401  0.7527269721025078   F   F   F
  0.9541400075071209  0.2958885133423621  0.7527269721025078   F   F   F
  0.9541400671111475  0.7958885431273401  0.7527269721025078   F   F   F
  0.2958824932447897  0.0459005012963090  0.7527049779914137   F   F   F
  0.2958824932702626  0.5459005236627235  0.7527049779914137   F   F   F
  0.7958824634454515  0.0459005012963090  0.7527049779914137   F   F   F
  0.7958824634709174  0.5459005236627235  0.7527049779914137   F   F   F
  0.6973416367275318  0.5224711842705412  0.5159018382944658   T   T   T
  0.4965615759260246  0.0093493356629021  0.5524588843508095   T   T   T
  0.4585490832904877  0.4824116880027514  0.5527618479168767   T   T   T
 -0.0093125898426937 -0.0129612457769531  0.5534727563430119   T   T   T
  0.0146801355087501  0.5045809174138567  0.5515941304483720   T   T   T
  0.2402642554320437  0.2376497791392800  0.5535226850910163   T   T   T
  0.2448240568862445  0.7585138771984586  0.5525326151085708   T   T   T
  0.7753131302794672  0.2312016302669664  0.5528644651841133   T   T   T
  0.7353874262446461  0.7682500314185214  0.5517975283166767   T   T   T
 -0.0053651589630063 -0.0075227824004631  0.6550616753881645   T   T   T
 -0.0064423521949605  0.5087070395389306  0.6536371511893513   T   T   T
  0.4945133425790205 -0.0082502217306914  0.6545706252172413   T   T   T
  0.4998329306208122  0.4945264062458518  0.6537911837508289   T   T   T
  0.2429579476500090  0.2461631601006157  0.6550363028736683   T   T   T
  0.2667703968682615  0.7559934787109822  0.6542640365819604   T   T   T
  0.7455088774907271  0.2526716694187455  0.6542801446710125   T   T   T
  0.7533189654742205  0.7438476085921665  0.6535215943447564   T   T   T
  0.1253533225062901  0.1118703562446956  0.6075717520323854   T   T   T
  0.1360139978935632  0.6125553847257020  0.6072892112290343   T   T   T
  0.6348886758168231  0.1096568044256440  0.6071498382177478   T   T   T
  0.6350631935737030  0.6020290234126193  0.6000074219737752   T   T   T
  0.3624106439652602  0.3759015150298510  0.6099383898892656   T   T   T
  0.3487642582167937  0.8967084124646547  0.6010605963809282   T   T   T
  0.8634706809189837  0.3842761687389673  0.6053413087674505   T   T   T
  0.8467435563910873  0.8897788617601837  0.6038544673716881   T   T   T
  0.1154578242706270  0.3669518195218606  0.6064961723313865   T   T   T
  0.1050101132783173  0.8549288207666701  0.6085321420115485   T   T   T
  0.6082040844951756  0.3549320186063593  0.6009280024490963   T   T   T
  0.6016191590338649  0.8534918307652590  0.6078120587672272   T   T   T
  0.3837210042902041  0.1335180312690674  0.6080986053275808   T   T   T
  0.3783713833658973  0.6281335409283957  0.6066939953016215   T   T   T
  0.8817964944390890  0.1292756809141123  0.6100957168106345   T   T   T
  0.8859400037118751  0.6402628839251356  0.5982030651308617   T   T   T
  0.0000000000000000  0.0000000000000000  0.7549279928135135   F   F   F
  0.0000000000193765  0.5000000000000000  0.7549279928135135   F   F   F
  0.4999999999889297  0.0000000000000000  0.7549279928135135   F   F   F
  0.5000000000083062  0.5000000000000000  0.7549279928135135   F   F   F
  0.2500005066262148  0.2500000000000000  0.7549390196750210   F   F   F
  0.2500005066455913  0.7500000000000000  0.7549390196750210   F   F   F
  0.7500004768268695  0.2500000000000000  0.7549390196750210   F   F   F
  0.7500004768462460  0.7500000000000000  0.7549390196750210   F   F   F
  0.1357904970913637  0.1142100020970958  0.7047830224073479   F   F   F
  0.1357904970574069  0.6142100095710177  0.7047830224073479   F   F   F
  0.6357904672366530  0.1142100020970958  0.7047830224073479   F   F   F
  0.6357904672580617  0.6142100095710177  0.7047830224073479   F   F   F
  0.3642095029149104  0.3857899904289823  0.7047830224073479   F   F   F
  0.3642095029342869  0.8857899904289823  0.7047830224073479   F   F   F
  0.8642095327474735  0.3857899904289823  0.7047830224073479   F   F   F
  0.8642095327114845  0.8857899904289823  0.7047830224073479   F   F   F
  0.1142179891403217  0.3642190098927216  0.7047809958420075   F   F   F
  0.1142179891596982  0.8642190098927216  0.7047809958420075   F   F   F
  0.6142179966039976  0.3642190098927216  0.7047809958420075   F   F   F
  0.6142179965680086  0.8642190098927216  0.7047809958420075   F   F   F
  0.3857820034204806  0.1357814967840127  0.7047820091166770   F   F   F
  0.3857820033926060  0.6357815265689908  0.7047820091166770   F   F   F
  0.8857820034094104  0.1357814967840127  0.7047820091166770   F   F   F
  0.8857820033815287  0.6357815265689908  0.7047820091166770   F   F   F
  0.1346669942216394  0.1153320073988340  0.8012560009966521   F   F   F
  0.1346669941856504  0.6153320073988340  0.8012560009966521   F   F   F
  0.6346669793164352  0.1153320073988340  0.8012560009966521   F   F   F
  0.6346669793358117  0.6153320073988340  0.8012560009966521   F   F   F
  0.3653329908925258  0.3846679926011660  0.8012560009966521   F   F   F
  0.3653329908565368  0.8846679926011589  0.8012560009966521   F   F   F
  0.8653329610931877  0.3846679926011660  0.8012560009966521   F   F   F
  0.8653329610571987  0.8846679926011589  0.8012560009966521   F   F   F
  0.1153285056432978  0.3653370142087482  0.8012650012928191   F   F   F
  0.1153285056073088  0.8653370142087482  0.8012650012928191   F   F   F
  0.6153284907380936  0.3653370142087482  0.8012650012928191   F   F   F
  0.6153284907574701  0.8653370142087482  0.8012650012928191   F   F   F
  0.3846715092631925  0.1346630006837373  0.8012650012928191   F   F   F
  0.3846715092785189  0.6346629857912518  0.8012650012928191   F   F   F
  0.8846715092521222  0.1346630006837373  0.8012650012928191   F   F   F
  0.8846715092674415  0.6346629857912518  0.8012650012928191   F   F   F
 -0.0082204656595191 -0.0102428928324935  0.6048628746877062   T   T   T
 -0.0035197942171298  0.5011900883060977  0.6027850242774163   T   T   T
  0.4970270745610457 -0.0037162839437487  0.6046234253099021   T   T   T
  0.4931199603266637  0.4903559742539561  0.6033417191510058   T   T   T
  0.2453891522035388  0.2428802038638437  0.6051334461786856   T   T   T
  0.2462351581524859  0.7503775424867329  0.6044923634304021   T   T   T
  0.7530561202779654  0.2466337905634579  0.6036445554887756   T   T   T
  0.7428029409431334  0.7462717694006298  0.6021000820584966   T   T   T
  0.0000005000032601  0.0000004999778866  0.7048289775829417   F   F   F
  0.0000005000163412  0.5000004768364050  0.7048289775829417   F   F   F
  0.5000004768481432  0.0000004999778866  0.7048289775829417   F   F   F
  0.5000004768612172  0.5000004768364050  0.7048289775829417   F   F   F
  0.2499999999728644  0.2499994784861386  0.7048249840801901   F   F   F
  0.2500000000044054  0.7499995231635950  0.7048249840801901   F   F   F
  0.7500000000171596  0.2499994784861386  0.7048249840801901   F   F   F
  0.7499999999933351  0.7499995231635950  0.7048249840801901   F   F   F
  0.0000000000000000  0.0000000000000000  0.8073179721848831   F   F   F
  0.0000000000193765  0.5000000000000000  0.8073179721848831   F   F   F
  0.4999999999889297  0.0000000000000000  0.8073179721848831   F   F   F
  0.5000000000083062  0.5000000000000000  0.8073179721848831   F   F   F
  0.2500000000041496  0.2500000000000000  0.8073179721848831   F   F   F
  0.2500000000235332  0.7500000000000000  0.8073179721848831   F   F   F
  0.7499999999930793  0.2500000000000000  0.8073179721848831   F   F   F
  0.7500000000124558  0.7500000000000000  0.8073179721848831   F   F   F
 
  0.00000000E+00  0.00000000E+00  0.00000000E+00
  0.00000000E+00  0.00000000E+00  0.00000000E+00
  0.00000000E+00  0.00000000E+00  0.00000000E+00
  0.00000000E+00  0.00000000E+00  0.00000000E+00
  0.00000000E+00  0.00000000E+00  0.00000000E+00
  0.00000000E+00  0.00000000E+00  0.00000000E+00
  0.00000000E+00  0.00000000E+00  0.00000000E+00
  0.00000000E+00  0.00000000E+00  0.00000000E+00
  0.00000000E+00  0.00000000E+00  0.00000000E+00
  0.00000000E+00  0.00000000E+00  0.00000000E+00
  0.00000000E+00  0.00000000E+00  0.00000000E+00
  0.00000000E+00  0.00000000E+00  0.00000000E+00
  0.00000000E+00  0.00000000E+00  0.00000000E+00
  0.00000000E+00  0.00000000E+00  0.00000000E+00
  0.00000000E+00  0.00000000E+00  0.00000000E+00
  0.00000000E+00  0.00000000E+00  0.00000000E+00
  0.00000000E+00  0.00000000E+00  0.00000000E+00
  0.00000000E+00  0.00000000E+00  0.00000000E+00
  0.00000000E+00  0.00000000E+00  0.00000000E+00
  0.00000000E+00  0.00000000E+00  0.00000000E+00
  0.00000000E+00  0.00000000E+00  0.00000000E+00
  0.00000000E+00  0.00000000E+00  0.00000000E+00
  0.00000000E+00  0.00000000E+00  0.00000000E+00
  0.00000000E+00  0.00000000E+00  0.00000000E+00
  0.00000000E+00  0.00000000E+00  0.00000000E+00
  0.00000000E+00  0.00000000E+00  0.00000000E+00
  0.00000000E+00  0.00000000E+00  0.00000000E+00
  0.00000000E+00  0.00000000E+00  0.00000000E+00
  0.00000000E+00  0.00000000E+00  0.00000000E+00
  0.00000000E+00  0.00000000E+00  0.00000000E+00
  0.00000000E+00  0.00000000E+00  0.00000000E+00
  0.00000000E+00  0.00000000E+00  0.00000000E+00
  0.00000000E+00  0.00000000E+00  0.00000000E+00
  0.00000000E+00  0.00000000E+00  0.00000000E+00
  0.00000000E+00  0.00000000E+00  0.00000000E+00
  0.00000000E+00  0.00000000E+00  0.00000000E+00
  0.00000000E+00  0.00000000E+00  0.00000000E+00
  0.00000000E+00  0.00000000E+00  0.00000000E+00
  0.00000000E+00  0.00000000E+00  0.00000000E+00
  0.00000000E+00  0.00000000E+00  0.00000000E+00
  0.00000000E+00  0.00000000E+00  0.00000000E+00
  0.00000000E+00  0.00000000E+00  0.00000000E+00
  0.00000000E+00  0.00000000E+00  0.00000000E+00
  0.00000000E+00  0.00000000E+00  0.00000000E+00
  0.00000000E+00  0.00000000E+00  0.00000000E+00
  0.00000000E+00  0.00000000E+00  0.00000000E+00
  0.00000000E+00  0.00000000E+00  0.00000000E+00
  0.00000000E+00  0.00000000E+00  0.00000000E+00
  0.00000000E+00  0.00000000E+00  0.00000000E+00
  0.00000000E+00  0.00000000E+00  0.00000000E+00
  0.00000000E+00  0.00000000E+00  0.00000000E+00
  0.00000000E+00  0.00000000E+00  0.00000000E+00
  0.00000000E+00  0.00000000E+00  0.00000000E+00
  0.00000000E+00  0.00000000E+00  0.00000000E+00
  0.00000000E+00  0.00000000E+00  0.00000000E+00
  0.00000000E+00  0.00000000E+00  0.00000000E+00
  0.00000000E+00  0.00000000E+00  0.00000000E+00
  0.00000000E+00  0.00000000E+00  0.00000000E+00
  0.00000000E+00  0.00000000E+00  0.00000000E+00
  0.00000000E+00  0.00000000E+00  0.00000000E+00
  0.00000000E+00  0.00000000E+00  0.00000000E+00
  0.00000000E+00  0.00000000E+00  0.00000000E+00
  0.00000000E+00  0.00000000E+00  0.00000000E+00
  0.00000000E+00  0.00000000E+00  0.00000000E+00
  0.00000000E+00  0.00000000E+00  0.00000000E+00
  0.00000000E+00  0.00000000E+00  0.00000000E+00
  0.00000000E+00  0.00000000E+00  0.00000000E+00
  0.00000000E+00  0.00000000E+00  0.00000000E+00
  0.00000000E+00  0.00000000E+00  0.00000000E+00
  0.00000000E+00  0.00000000E+00  0.00000000E+00
  0.00000000E+00  0.00000000E+00  0.00000000E+00
  0.00000000E+00  0.00000000E+00  0.00000000E+00
  0.00000000E+00  0.00000000E+00  0.00000000E+00
  0.00000000E+00  0.00000000E+00  0.00000000E+00
  0.00000000E+00  0.00000000E+00  0.00000000E+00
  0.00000000E+00  0.00000000E+00  0.00000000E+00
  0.00000000E+00  0.00000000E+00  0.00000000E+00
  0.00000000E+00  0.00000000E+00  0.00000000E+00
  0.00000000E+00  0.00000000E+00  0.00000000E+00
  0.00000000E+00  0.00000000E+00  0.00000000E+00
  0.00000000E+00  0.00000000E+00  0.00000000E+00
  0.00000000E+00  0.00000000E+00  0.00000000E+00
  0.00000000E+00  0.00000000E+00  0.00000000E+00
  0.00000000E+00  0.00000000E+00  0.00000000E+00
  0.00000000E+00  0.00000000E+00  0.00000000E+00
  0.00000000E+00  0.00000000E+00  0.00000000E+00
  0.00000000E+00  0.00000000E+00  0.00000000E+00
  0.00000000E+00  0.00000000E+00  0.00000000E+00
  0.00000000E+00  0.00000000E+00  0.00000000E+00
  0.00000000E+00  0.00000000E+00  0.00000000E+00
  0.00000000E+00  0.00000000E+00  0.00000000E+00
  0.00000000E+00  0.00000000E+00  0.00000000E+00
  0.00000000E+00  0.00000000E+00  0.00000000E+00
  0.00000000E+00  0.00000000E+00  0.00000000E+00
  0.00000000E+00  0.00000000E+00  0.00000000E+00
  0.00000000E+00  0.00000000E+00  0.00000000E+00
  0.00000000E+00  0.00000000E+00  0.00000000E+00
  0.00000000E+00  0.00000000E+00  0.00000000E+00
  0.00000000E+00  0.00000000E+00  0.00000000E+00
  0.00000000E+00  0.00000000E+00  0.00000000E+00
  0.00000000E+00  0.00000000E+00  0.00000000E+00
  0.00000000E+00  0.00000000E+00  0.00000000E+00
  0.00000000E+00  0.00000000E+00  0.00000000E+00
  0.00000000E+00  0.00000000E+00  0.00000000E+00
  0.00000000E+00  0.00000000E+00  0.00000000E+00
  0.00000000E+00  0.00000000E+00  0.00000000E+00
  0.00000000E+00  0.00000000E+00  0.00000000E+00
  0.00000000E+00  0.00000000E+00  0.00000000E+00
  0.00000000E+00  0.00000000E+00  0.00000000E+00
  0.00000000E+00  0.00000000E+00  0.00000000E+00
  0.00000000E+00  0.00000000E+00  0.00000000E+00
  0.00000000E+00  0.00000000E+00  0.00000000E+00
  0.00000000E+00  0.00000000E+00  0.00000000E+00
  0.00000000E+00  0.00000000E+00  0.00000000E+00
  0.00000000E+00  0.00000000E+00  0.00000000E+00
  0.00000000E+00  0.00000000E+00  0.00000000E+00
  0.00000000E+00  0.00000000E+00  0.00000000E+00
  0.00000000E+00  0.00000000E+00  0.00000000E+00
  0.00000000E+00  0.00000000E+00  0.00000000E+00
  0.00000000E+00  0.00000000E+00  0.00000000E+00